 # Version information for this restart file 
 # current date 2025-09-11 14:11:50.030
 # current working dir /fs2/home/gaoyr/bq/4-cp2k/4-CO2_NH3/3-metad/7-newpath2/1-NH2COOH/1-HNCO/6-1NH3-1H20-CO/2-steptwo/win2-2.5-4.0
 # Program compiled at                              Thu Sep  7 10:07:06 CST 2023
 # Program compiled on                                                 th-ex-ln1
 # Program compiled for                                                    local
 # Source code revision number                                       git:e635599
 &GLOBAL
   PRINT_LEVEL  LOW
   PROJECT_NAME md
   RUN_TYPE  MD
 &END GLOBAL
 &MOTION
   &GEO_OPT
     TYPE  MINIMIZATION
     OPTIMIZER  LBFGS
     MAX_ITER  2000
     MAX_DR     1.0000000000000000E-02
     MAX_FORCE     1.0000000000000000E-02
     RMS_DR     1.0000000000000000E-03
     RMS_FORCE     1.0000000000000000E-03
     &LBFGS
     &END LBFGS
   &END GEO_OPT
   &MD
     ENSEMBLE  NVT
     STEPS  30000
     TIMESTEP     9.9999999999999989E-01
     STEP_START_VAL  500
     TIME_START_VAL     4.9999999999999591E+02
     ECONS_START_VAL    -1.2647691288028889E+03
     TEMPERATURE     3.0000000000000000E+02
     &THERMOSTAT
       &NOSE
         LENGTH  3
         YOSHIDA  3
         TIMECON     9.9999999999999986E+01
         MTS  2
         &COORD
               7.5021190773290142E-02    4.3947226742968182E+00    4.4844100712077388E+00
         &END COORD
         &VELOCITY
               1.6325010987948564E-06    1.2174201105263716E-04    2.2047255830803423E-04
         &END VELOCITY
         &MASS
               1.3137598809072948E+08    1.6237299232570693E+04    1.6237299232570693E+04
         &END MASS
         &FORCE
               2.7440175833432929E-10   -3.6947014704355221E-08   -4.3688896594964646E-08
         &END FORCE
       &END NOSE
     &END THERMOSTAT
     &AVERAGES  T
       &RESTART_AVERAGES
         ITIMES_START  1
         AVECPU     1.3449562082444551E+01
         AVEHUGONIOT     0.0000000000000000E+00
         AVETEMP_BARO     0.0000000000000000E+00
         AVEPOT    -1.2687441498697110E+03
         AVEKIN     3.8936777707105046E+00
         AVETEMP     3.0392404575296786E+02
         AVEKIN_QM     4.2803567980884660E-01
         AVETEMP_QM     4.1524674679427307E+02
         AVEVOL     5.5282356904673262E+05
         AVECELL_A     6.0471236252340539E+01
         AVECELL_B     6.0471236252340539E+01
         AVECELL_C     1.5117809063085136E+02
         AVEALPHA     9.0000000000000000E+01
         AVEBETA     9.0000000000000000E+01
         AVEGAMMA     9.0000000000000000E+01
         AVE_ECONS     2.6073144391923300E+01
         AVE_PRESS     0.0000000000000000E+00
         AVE_PXX     0.0000000000000000E+00
       &END RESTART_AVERAGES
     &END AVERAGES
   &END MD
   &FREE_ENERGY
     &METADYN
       USE_PLUMED  T
       PLUMED_INPUT_FILE ./plumed.dat
       MIN_DISP     1.6975966331180638-313
       OLD_HILL_NUMBER  14
       OLD_HILL_STEP  15
       STEP_START_VAL  0
       NHILLS_START_VAL  0
       COLVAR_AVG_TEMPERATURE_RESTART     6.0134700169990685-154
     &END METADYN
   &END FREE_ENERGY
   &PRINT
     &TRAJECTORY  SILENT
       FILENAME =traj.xyz
       &EACH
         MD  5
       &END EACH
     &END TRAJECTORY
     &VELOCITIES  OFF
     &END VELOCITIES
     &FORCES  OFF
     &END FORCES
     &RESTART  ON
       &EACH
         MD  200
       &END EACH
     &END RESTART
     &RESTART_HISTORY  SILENT
       &EACH
         MD  500
       &END EACH
     &END RESTART_HISTORY
   &END PRINT
 &END MOTION
 &FORCE_EVAL
   METHOD  QMMM
   &DFT
     BASIS_SET_FILE_NAME BASIS_MOLOPT
     POTENTIAL_FILE_NAME POTENTIAL
     MULTIPLICITY  1
     CHARGE  0
     &SCF
       MAX_SCF  100
       EPS_SCF     1.0000000000000001E-05
       SCF_GUESS  RESTART
       &OT  T
         MINIMIZER  DIIS
         PRECONDITIONER  FULL_SINGLE_INVERSE
       &END OT
       &OUTER_SCF  T
         EPS_SCF     1.0000000000000001E-05
         MAX_SCF  10
       &END OUTER_SCF
       &PRINT
         &RESTART  OFF
         &END RESTART
       &END PRINT
     &END SCF
     &QS
       EPS_DEFAULT     1.0000000000000000E-10
       EXTRAPOLATION  ASPC
       METHOD  GPW
     &END QS
     &MGRID
       CUTOFF     3.0000000000000000E+02
       COMMENSURATE  T
       REL_CUTOFF     4.0000000000000000E+01
     &END MGRID
     &XC
       DENSITY_CUTOFF     1.0000000000000000E-10
       GRADIENT_CUTOFF     1.0000000000000000E-10
       TAU_CUTOFF     1.0000000000000000E-10
       &XC_GRID
         XC_SMOOTH_RHO  NN10
         XC_DERIV  NN10_SMOOTH
       &END XC_GRID
       &XC_FUNCTIONAL  NO_SHORTCUT
         &PBE  T
           PARAMETRIZATION  REVPBE
         &END PBE
       &END XC_FUNCTIONAL
       &VDW_POTENTIAL
         POTENTIAL_TYPE  PAIR_POTENTIAL
         &PAIR_POTENTIAL
           TYPE  DFTD3(BJ)
           PARAMETER_FILE_NAME dftd3.dat
           REFERENCE_FUNCTIONAL revPBE
         &END PAIR_POTENTIAL
       &END VDW_POTENTIAL
     &END XC
     &PRINT
       &E_DENSITY_CUBE  OFF
       &END E_DENSITY_CUBE
     &END PRINT
   &END DFT
   &MM
     &FORCEFIELD
       PARMTYPE  AMBER
       PARM_FILE_NAME complex_LJ_mod.prmtop
       &SPLINE
         RCUT_NB     1.0000000000000002E+01
         EMAX_SPLINE     1.0000000000000000E+08
       &END SPLINE
     &END FORCEFIELD
     &POISSON
       &EWALD
         EWALD_TYPE  SPME
         ALPHA     4.0000000000000008E-01
         GMAX  80
       &END EWALD
     &END POISSON
   &END MM
   &QMMM
     E_COUPL  GAUSS
     USE_GEEP_LIB  6
     NOCOMPATIBILITY  T
     CENTER  NEVER
     INITIAL_TRANSLATION_VECTOR     0.0000000000000000E+00    0.0000000000000000E+00    0.0000000000000000E+00
     &QM_KIND H
       MM_INDEX  5..7 9 10 156 157 165 166 177 178 \
        234 235 258 259 261 262 267 268 285 286 \
        312 313 357 358 378 379 384 385 429 430 \
        438 439 456 457 573 574 576 577 648 649 \
        702 703 837 838 846 847 852 853 993 994 \
        1008 1009 1035 1036 1155 1156 1170 1171 1182 1183 \
        1203 1204 1257 1258 1281 1282 1332 1333 1413 1414 \
        1470 1471 1524 1525 1548 1549 1626 1627 1704 1705 \
        1737 1738 1788 1789 1803 1804 1839 1840 1860 1861 \
        1863 1864 1923 1924 1950 1951 1968 1969 1974 1975 \
        2001 2002 2031 2032 2052 2053 2064 2065 2094 2095 \
        2130 2131 2181 2182 2190 2191 2220 2221 2253 2254 \
        2262 2263 2271 2272 2274 2275 2331 2332 2358 2359 \
        2394 2395 2418 2419 2442 2443 2562 2563 2607 2608 \
        2637 2638
     &END QM_KIND
     &QM_KIND O
       MM_INDEX  2 3 8 155 164 176 233 257 260 \
        266 284 311 356 377 383 428 437 455 572 \
        575 647 701 836 845 851 992 1007 1034 1154 \
        1169 1181 1202 1256 1280 1331 1412 1469 1523 1547 \
        1625 1703 1736 1787 1802 1838 1859 1862 1922 1949 \
        1967 1973 2000 2030 2051 2063 2093 2129 2180 2189 \
        2219 2252 2261 2270 2273 2330 2357 2393 2417 2441 \
        2561 2606 2636
     &END QM_KIND
     &QM_KIND C
       MM_INDEX  1
     &END QM_KIND
     &QM_KIND N
       MM_INDEX  4
     &END QM_KIND
     &CELL
       ABC     2.5000000000000004E+01    2.5000000000000004E+01    1.8000000000000000E+01
       PERIODIC  XYZ
     &END CELL
     &WALLS
       WALL_SKIN     2.0000000000000000E+00    2.0000000000000000E+00    2.0000000000000000E+00
       TYPE  REFLECTIVE
     &END WALLS
   &END QMMM
   &SUBSYS
     &CELL
       A     3.2000000000000000E+01    0.0000000000000000E+00    0.0000000000000000E+00
       B     0.0000000000000000E+00    3.2000000000000000E+01    0.0000000000000000E+00
       C     0.0000000000000000E+00    0.0000000000000000E+00    8.0000000000000014E+01
       PERIODIC  XYZ
       MULTIPLE_UNIT_CELL  1 1 1
     &END CELL
     &COORD
C1    1.3383144939157317E+01    1.2201523571043669E+01    1.1897051176333763E+01
O    1.4548138316360362E+01    1.2598734713081914E+01    1.1717474405305515E+01
O    1.3376680244762115E+01    1.0724018657306068E+01    1.2629476875022588E+01
N3    1.2272558270854338E+01    1.2729015586404664E+01    1.1844087703117848E+01
HN    1.3950147557267082E+01    1.0007846489142146E+01    1.2216758737729545E+01
HN    1.2277305049058491E+01    1.3726645438106322E+01    1.1656082717772467E+01
HN    1.0914677364048726E+01    1.1941035036615343E+01    1.1235421493784779E+01
OW    1.0110931535500320E+01    1.1616461235111542E+01    1.0840319861493226E+01
HW    1.0634280763144622E+01    9.9949392008159403E+00    1.1515989339385309E+01
HW    9.9530226320969302E+00    1.1703971092019712E+01    9.9078459935934813E+00
OW    2.7786621474939668E+01    1.4807287431557908E+01   -7.6107820841971907E-01
HW    2.7345191980324053E+01    1.5580327142352436E+01   -1.1889944080797721E+00
HW    2.7231792415758875E+01    1.4087051359011813E+01   -1.1872918070386560E+00
OW   -2.3611014551731149E+00    1.9081185434335232E+01    2.5972227574412625E+00
HW   -2.4762148024615529E+00    1.8226775843267390E+01    3.0159473305085576E+00
HW   -3.1379556279273824E+00    1.9597979284281564E+01    2.8981942753070258E+00
OW    1.4054034795569676E+00    8.6041631955492530E+00   -8.7414826166325987E+00
HW    2.0850402910992099E+00    8.6143360056181635E+00   -8.0684410876602026E+00
HW    1.7595076497199167E+00    9.2692297954819587E+00   -9.4139327592489614E+00
OW    2.8791301082450591E+01    2.3597437921377644E+01   -2.6821390647552876E+00
HW    2.8401732018126474E+01    2.4438110043520915E+01   -3.0354791026900338E+00
HW    2.9535522401711113E+01    2.3993608243562431E+01   -2.1579073185459627E+00
OW    2.2977259248616548E+01    7.8344059370397829E+00    9.7062659838028580E+00
HW    2.2625731487939237E+01    8.3708166958086796E+00    1.0396654469925819E+01
HW    2.2777269171063168E+01    8.3169441774361736E+00    8.9355633919419599E+00
OW    1.8843373979570377E+01   -3.2468329856918539E+00    8.0154206854061076E+00
HW    1.8904376095215770E+01   -2.5549874840916780E+00    8.6942269646601407E+00
HW    1.8537027139364277E+01   -2.7293998722905832E+00    7.2352149238402497E+00
OW   -2.7262995653865891E+00    2.0942722698472064E+01   -2.5994848403337190E+00
HW   -3.0810137981051597E+00    2.1873984684678469E+01   -2.6484651337929299E+00
HW   -1.7482311595259048E+00    2.1147694847447095E+01   -2.6051224724702617E+00
OW   -1.9415612267024058E+00    8.7161075436403497E+00   -1.9605017446240587E+00
HW   -2.5202665338588139E+00    8.8690352945366868E+00   -1.2015638068229635E+00
HW   -2.3290635995130478E+00    9.3902698486135439E+00   -2.5615661444948383E+00
OW    2.3913999196205172E+01    2.5129022642692336E+00   -9.8876913799238242E-02
HW    2.4161119983415567E+01    1.8600792369295873E+00   -7.8812577782718896E-01
HW    2.4613390486883837E+01    2.4089823200411566E+00    5.6973551258559751E-01
OW    2.1593126298300913E+01    2.1371729661175891E+01   -5.6693684758194030E+00
HW    2.1062036565841886E+01    2.2220000362863363E+01   -5.4982646077495820E+00
HW    2.2197658051758111E+01    2.1467868961849152E+01   -4.9173404525171396E+00
OW    2.5286063804928433E-01    1.0280878126684168E+01    3.0912305917588823E+00
HW   -8.6511166368544487E-02    9.8021774939646562E+00    3.8440059512748852E+00
HW   -5.2579045653235457E-01    1.0394385762788932E+01    2.5251866834911612E+00
OW    6.0880219409731184E+00    2.0134965544531379E+01   -1.0934603785493147E+01
HW    5.1289917027591292E+00    2.0196958590745400E+01   -1.1058229522310421E+01
HW    6.1000445911830257E+00    1.9663253830129666E+01   -1.0060634152040874E+01
OW    2.2607413669622961E+01    3.7296010979561833E+00   -5.4447306420246218E+00
HW    2.1659339282001262E+01    4.0160442430183485E+00   -5.4473652807460171E+00
HW    2.2997577981554503E+01    4.6471067732478719E+00   -5.2996006327090646E+00
OW    8.8990493188159070E-01    5.1669663704988167E-01   -9.9986634399196301E+00
HW    1.0823773120053211E+00    7.2177600126925778E-01   -1.0915942367225714E+01
HW   -2.5569962814757981E-04    9.6982275755196345E-01   -9.9370753191515551E+00
OW    2.0076239844719446E+01    4.4500129972868158E-01   -4.0326373392297539E+00
HW    1.9427069983817308E+01    8.4901054263132025E-01   -4.6233812379759973E+00
HW    2.0704671878124714E+01    1.2794723266071997E+00   -3.8963559385629956E+00
OW    1.3033880030241310E+01   -1.7314504275337372E+00   -9.8342478178950135E+00
HW    1.3741007965605153E+01   -1.5537671595626030E+00   -1.0497032202124938E+01
HW    1.2519044355862176E+01   -9.0323731002144325E-01   -9.8985988696490850E+00
OW   -1.2702561441945071E+00    2.4393243814345265E+01   -7.9027443120108298E-01
HW   -6.9652560526074636E-01    2.5152656944510586E+01   -5.6200036844502776E-01
HW   -5.9836697327810084E-01    2.3672770825002960E+01   -6.2526000744894006E-01
OW    2.8448840037466816E+01   -2.6488346010916999E+00   -3.5869100532359877E+00
HW    2.7772363645515629E+01   -2.8995970724894584E+00   -2.9264759213333891E+00
HW    2.7926140617014379E+01   -2.0323188494641311E+00   -4.1040112413902339E+00
OW    2.1433202438663233E+01    2.5863452895227194E+01   -4.8391341797274867E+00
HW    2.0488185484107188E+01    2.6049959529165758E+01   -4.9846646138965829E+00
HW    2.1799741868838165E+01    2.6727780225652509E+01   -5.1347070053996609E+00
OW    1.5800258982403747E+01    1.3959578977810438E+01   -1.2645230373049792E+01
HW    1.5871622446199682E+01    1.4575158316972617E+01   -1.3446265331509274E+01
HW    1.6375194921661443E+01    1.4484005581264812E+01   -1.2057620343058577E+01
OW    1.0921653426125774E+01    1.4791633557015439E+01   -1.6659395424362611E+01
HW    1.1036092102802725E+01    1.5743440821884155E+01   -1.6746535113126743E+01
HW    9.9744950348323798E+00    1.4800607056363603E+01   -1.6290739497689248E+01
OW    1.7557282839139933E+01    2.8299887095502868E+01   -1.4530170299456602E+01
HW    1.6948966006284863E+01    2.7663659231853075E+01   -1.4089007371602937E+01
HW    1.6972191551518520E+01    2.8387485229415852E+01   -1.5401292949157630E+01
OW    2.0599246874207928E+01    4.6289534718275389E+00   -8.4592490983241149E+00
HW    2.0235960685344793E+01    4.9334972181824348E+00   -9.3455486635606100E+00
HW    2.0378036667431285E+01    3.6520531697721368E+00   -8.5206063051551411E+00
OW    2.2757274073369516E+01   -4.0072570459783599E+00   -5.3650198832362124E+00
HW    2.3685294751743825E+01   -3.9132013134299295E+00   -5.6355609020464330E+00
HW    2.2417854171769136E+01   -3.0891682525889639E+00   -5.2744295533697185E+00
OW   -2.4147107060195152E+00    7.0101195797113469E+00   -1.2009371345698543E+01
HW   -2.7392643027224550E+00    6.4822137510003159E+00   -1.1265068905002359E+01
HW   -2.1666237922929232E+00    7.8473100028261475E+00   -1.1546256456182284E+01
OW    2.0721353904981207E+01    1.1711740960375222E+01   -6.7201392932491588E-01
HW    1.9839774660968846E+01    1.1809094690111012E+01   -1.1584330811420109E+00
HW    2.1224651443581827E+01    1.2500043334027488E+01   -9.5074617561689068E-01
OW    1.5229736807607146E+01    7.4643221482658859E+00    2.0746671463593271E+00
HW    1.5811862835596976E+01    8.1521850260257196E+00    1.6799205735740685E+00
HW    1.4437480445116329E+01    7.5653982568672298E+00    1.5123362812362986E+00
OW    5.4010875622482821E+00    2.9103959887786406E+01   -4.2956896127361972E+00
HW    5.2407287892561971E+00    2.9771981492748548E+01   -5.0314139816598802E+00
HW    4.6734600207493635E+00    2.9346534838766498E+01   -3.7427596421350366E+00
OW    2.5382252299931483E+01    4.9290126515480379E+00   -1.5039026299813875E+01
HW    2.5264095427438054E+01    3.9728994193411271E+00   -1.5255580013345471E+01
HW    2.4474778073934402E+01    5.2428041119995035E+00   -1.5212708823611749E+01
OW    1.6422827077880459E+01    2.0103764592014259E-01   -5.4196279838937089E+00
HW    1.6461988837518561E+01    6.2541871430290052E-01   -6.3371856496850913E+00
HW    1.6018773233157120E+01    1.0003892808563328E+00   -4.9566963965437996E+00
OW    2.4777444749197169E+01   -1.2315145340603597E+00    3.1095095025535016E+00
HW    2.5678727683794857E+01   -1.0310716924160512E+00    2.7821303267792628E+00
HW    2.4253409798846004E+01   -5.6127305163951624E-01    2.5644958052680003E+00
OW   -1.1474944301572965E+00    9.2494827704010270E+00   -1.0602673447932368E+01
HW   -1.2743392657579502E+00    9.9617344380825248E+00   -1.1207272425027751E+01
HW   -3.0608443452163114E-01    9.4448158781354863E+00   -1.0168000901630451E+01
OW    2.5782029738674876E+01   -6.3018668558281048E+00    7.6775303511305291E+00
HW    2.6450856026257991E+01   -6.8027496209001832E+00    7.1859175676598488E+00
HW    2.4960130225598633E+01    2.5165231140723499E+01    7.4157845862438707E+00
OW    2.4756892972726803E+00   -4.4433029728002769E+00   -2.4648247133350067E+00
HW    3.3029493357431008E+00   -4.0789691345627999E+00   -2.1223737159053644E+00
HW    2.0295594565765693E+00   -3.5716433050630365E+00   -2.6619853254141921E+00
OW    7.5011390918588789E+00    2.8522542215538791E+00   -6.7662099110302680E+00
HW    6.5954309826488267E+00    3.0625329736273601E+00   -6.4738067094217389E+00
HW    7.5934986745169102E+00    1.9476966935048026E+00   -6.4713433861952270E+00
OW    1.0779869032405339E+01   -7.6229840031074190E+00   -1.4701198817489219E+01
HW    9.8834533839796332E+00   -8.0022434188596936E+00   -1.4589702922206463E+01
HW    1.0987983448557724E+01   -7.4577755199963809E+00   -1.3754707371436975E+01
OW    2.5202908775427566E+01    1.6435301044542271E+01    6.2965790674001392E+00
HW    2.5434446656592272E+01    1.7002930078223535E+01    5.5539700513968118E+00
HW    2.5401407990776395E+01    1.7093211136861324E+01    7.0439382911268558E+00
OW    2.1589266168334650E+01    6.9420110444830332E+00   -3.2465740875610769E+00
HW    2.2371764040549955E+01    7.3568790087329976E+00   -2.9021913955204575E+00
HW    2.1120173911447772E+01    7.6801423401980928E+00   -3.5911826466889094E+00
OW    2.1817529426429584E+01   -2.7031853501998393E-01   -6.5056398051324340E+00
HW    2.2275960643415317E+01    5.3638701869329175E-01   -6.8504469192967425E+00
HW    2.0870194461225214E+01    6.8988159350248700E-03   -6.6107364898949408E+00
OW    4.1497780828161899E+00    1.0382682647464281E+00   -1.2539203823330231E+01
HW    3.3036186013530862E+00    9.4406148969620340E-01   -1.3006590023865419E+01
HW    4.4806893768116884E+00    5.8200801536576148E-02   -1.2563855535546443E+01
OW    9.7362765554388417E+00    3.2024706258502329E+00    2.9440634111063515E+00
HW    1.0083721141313406E+01    4.0908046720649249E+00    2.9283833452260781E+00
HW    8.7897674351489545E+00    3.3493254646633783E+00    2.6214100114442198E+00
OW    9.3041540060039321E+00    1.9559320397130013E+00   -2.8750235274077878E+00
HW    9.3873186801134505E+00    2.5256086558284760E+00   -3.6788539736276933E+00
HW    1.0039615536790457E+01    1.3061917980880753E+00   -3.0884535227068715E+00
OW    5.3764421302670797E+00   -1.4140291741563678E+00   -1.2821827188997480E+01
HW    4.9150125932788571E+00   -2.0067986243526073E+00   -1.2128450145776013E+01
HW    6.3060126998443913E+00   -1.5906195397613785E+00   -1.2590790501057805E+01
OW    2.4186498979953790E+01    5.4468424247224618E+00   -6.0130080596397317E-01
HW    2.4950982544213588E+01    5.6369838544627324E+00   -1.1610609399000187E+00
HW    2.4237369670911335E+01    4.4978215634183458E+00   -4.9678184278809762E-01
OW    1.3240271733675355E+01    1.1912134261566559E+01    5.7163236086032032E-01
HW    1.2949501380983001E+01    1.2790004834548355E+01    1.7142798434030490E-01
HW    1.2421421099439280E+01    1.1423508868734421E+01    6.3372497649315562E-01
OW    5.0711358808534444E+00    9.2337691206515462E+00   -1.1576524759818003E+01
HW    5.5996463031928156E+00    9.4997765946621389E+00   -1.2386513485720716E+01
HW    4.6447424604646601E+00    1.0105621312324292E+01   -1.1398210055365062E+01
OW    9.7759168682588786E+00    1.1859530895953707E+01   -1.0814412690904522E+01
HW    9.9193873554648508E+00    1.2708783533403178E+01   -1.0451973241201115E+01
HW    8.9738264786130362E+00    1.1915977902960783E+01   -1.1383179174306131E+01
OW    2.6937670047972915E+01    2.9363413065847928E+00    6.3142965108929090E+00
HW    2.6277571959733635E+01    2.2604023908686908E+00    6.0250010555750952E+00
HW    2.6773941236667017E+01    3.6732096557716272E+00    5.6426526239004779E+00
OW    2.2071011310267096E+01    1.1382817461705695E+01    8.8225148657916197E+00
HW    2.1937204248672796E+01    1.0515876953536848E+01    8.3798929898207177E+00
HW    2.2878806922135944E+01    1.1830175750078507E+01    8.4796776049881419E+00
OW    1.2065262647451108E+01   -6.2596480545660071E+00   -1.2127850431120239E+01
HW    1.1366196355132542E+01   -6.1290423109559011E+00   -1.1417374664914281E+01
HW    1.2610607140727902E+01   -5.4773553438166509E+00   -1.1979833059269932E+01
OW    1.6711044157112330E+01    1.4600512770375961E+01   -1.5643542745887415E+00
HW    1.6189448747092555E+01    1.3947125223922937E+01   -1.0155450623991398E+00
HW    1.6196516066737914E+01    1.5413805145310493E+01   -1.4050481885755361E+00
OW    6.2523680318338251E+00    3.3414003132404693E+00    1.1541240016104606E+01
HW    6.0110236327920052E+00    2.3896735525025954E+00    1.1410676304183463E+01
HW    7.2542469238622251E+00    3.1789302676394851E+00    1.1605594439927520E+01
OW    7.2582984728511182E+00    1.8561829721595931E+01    3.4563066039894199E+00
HW    6.6864724353228731E+00    1.8699686228784032E+01    2.6911865026768065E+00
HW    6.6990155873795931E+00    1.8964017223292643E+01    4.1909207558857595E+00
OW    8.0990663965544840E+00    2.4478765834293434E+01   -4.5808936833246339E+00
HW    8.1585591549111491E+00    2.4373999218781613E+01   -3.6095522324768785E+00
HW    8.5904751126989112E+00    2.5335128127361894E+01   -4.6612780405895382E+00
OW    1.0401593865198009E+01   -3.0142014800508710E+00   -1.3645377412611328E+01
HW    1.0380688144196139E+01   -3.6240562616721741E+00   -1.4457304481169469E+01
HW    9.5102018995969999E+00   -2.6465708048041003E+00   -1.3746802721603752E+01
OW    1.2119967059915977E+01    1.9470538630058961E+01    5.2227955733974492E+00
HW    1.1763859937871363E+01    1.8893087738824480E+01    5.9915119314619538E+00
HW    1.3097735922334589E+01    1.9093389446805315E+01    5.1117274780642621E+00
OW    3.6086304398836724E+00   -1.2356453364847197E+00    7.4477669104467754E+00
HW    3.1652620048876461E+00   -3.6745869811661785E-01    7.2865648634605531E+00
HW    4.3555829659224923E+00   -1.1055697701846452E+00    6.8169693239849476E+00
OW    1.5805655066307496E+01    1.6171504120355200E+00   -1.3217558719063609E+01
HW    1.5853952405449091E+01    2.1183551461810826E+00   -1.2382573945602358E+01
HW    1.6599930859078537E+01    1.9866318101300555E+00   -1.3651129122750753E+01
OW    2.2875498830135808E+01    2.4033064503238538E+01   -1.1324140562150239E+01
HW    2.2592187946889396E+01    2.3888504454207240E+01   -1.0374471521576213E+01
HW    2.3796883435219893E+01    2.4297076860759745E+01   -1.1203973009774154E+01
OW    5.5826545154741067E+00   -5.5928889538337290E-01    5.4961007476732577E+00
HW    5.2391534829455564E+00    3.0925139465235759E+01    4.7503412324672825E+00
HW    5.6061244672567065E+00    3.1008337794820212E-01    5.0984347433206016E+00
OW    4.2949424269042886E+00    1.8022002758649617E+01   -5.4924476225953835E+00
HW    4.4422027992319970E+00    1.7112929413788923E+01   -5.2635693475047471E+00
HW    5.1491046604783675E+00    1.8465214796495633E+01   -5.2223874498201974E+00
OW    2.2901522594834518E+01    1.8162320234674830E+01    4.9690351116715172E+00
HW    2.3051152758108785E+01    1.9135869107149869E+01    5.1738660938436150E+00
HW    2.3734849644808111E+01    1.7796689884022765E+01    5.3554711789350851E+00
OW    6.9265330046560214E+00    5.7624687057855857E+00    6.5365969263113111E-01
HW    6.1037141507309158E+00    6.2780112090916251E+00    6.3452141852316346E-01
HW    7.0165196764246973E+00    5.5112457515625577E+00   -2.5225475279030124E-01
OW    2.8232515604927254E+01    4.7931555380048305E+00    1.1674395362317295E+01
HW    2.8759968903917731E+01    5.4873227797335735E+00    1.1321051348783069E+01
HW    2.8302123828613858E+01    4.8842166924073718E+00    1.2643798564530153E+01
OW    3.8334060427184782E+00   -3.5468942502052871E+00    2.0153976665579585E-02
HW    3.2360769498643163E+00   -3.9976981775992049E+00    6.5618147580727770E-01
HW    3.7830637595949348E+00   -2.6308656615207235E+00    3.0969536134196352E-01
OW    1.7352949924291764E+01    2.0338616191079510E+01    2.4116442762711792E+00
HW    1.7651174600338610E+01    2.1121964896357859E+01    2.9253304061352514E+00
HW    1.6416020223227498E+01    2.0589669486345290E+01    2.3444837144613220E+00
OW    2.4773243132278907E+01    2.9292126470221525E+01    1.6140947834135536E-01
HW    2.4028001221433250E+01    2.9662998510507304E+01   -3.4706691530395722E-01
HW    2.4239923662166337E+01    2.8546602817176119E+01    6.7364471736827680E-01
OW    1.7862153345423284E+01    9.5634578991986228E+00   -4.6896681198823273E+00
HW    1.8319537644499974E+01    1.0409666220310779E+01   -4.9150496498805092E+00
HW    1.6973697664358337E+01    9.7832342854452783E+00   -5.0234964845828447E+00
OW    1.0952669345242432E+01   -1.1387257612995740E+00    1.0311425845930900E+01
HW    1.0671361388633036E+01   -7.4397271665763820E-01    1.1123145453964382E+01
HW    1.0334528144268488E+01   -7.7950728763760135E-01    9.6394278223399947E+00
OW    4.1891457134797703E+00    2.6234190775103261E+01    7.2309944668985393E+00
HW    5.0905243066834789E+00    2.6083349804093196E+01    7.5526715645840223E+00
HW    4.3846383647471860E+00    2.6972556395617737E+01    6.6335161474936513E+00
OW   -4.0621235495459347E+00    3.8825028709625080E+00   -3.6209071248268101E+00
HW   -3.8838420332252941E+00    3.7657837944340766E+00   -4.5736998790932297E+00
HW   -3.7805929089313790E+00    3.0467288141012263E+00   -3.2324497070848919E+00
OW    5.9366471277469284E+00    1.2142000821364601E+01   -1.5946918364423906E+01
HW    6.0377197981440034E+00    1.2209569752927457E+01   -1.6898672591581093E+01
HW    5.8724309592598560E+00    1.3054682645985642E+01   -1.5656413361225381E+01
OW    5.4896202951379882E+00   -5.8144171801871503E+00   -3.1542327848347846E+00
HW    5.7799067833760294E+00   -4.9834110015070285E+00   -3.4849972512884149E+00
HW    5.7670982395312480E+00   -5.6537165387104746E+00   -2.1979861104973826E+00
OW    2.6016945052651771E+01    1.7112076700791285E+01   -1.3000301452502010E+01
HW    2.5036761929340120E+01    1.7072657513518909E+01   -1.2999030698475551E+01
HW    2.6130763131321263E+01    1.7482888819749324E+01   -1.2136653114245124E+01
OW    1.7048686505713160E+01    1.2829237647658717E+01    6.3225447746436902E+00
HW    1.7924603355135503E+01    1.2516639262863272E+01    6.0374081313097960E+00
HW    1.6499549999244227E+01    1.2058752638004911E+01    6.4525647291448118E+00
OW    1.2241969336222454E+01    8.1599583853929403E+00   -2.0727725949740985E+00
HW    1.1726709861629391E+01    8.9789591318270059E+00   -2.1815919316935992E+00
HW    1.2008187424479466E+01    7.5780923610849333E+00   -2.7518210748464695E+00
OW    8.9312233962617604E+00    1.7047419509871361E+01   -1.3109028557648003E+01
HW    8.3589710625209488E+00    1.6605557916949959E+01   -1.2445063000096560E+01
HW    8.9240029592585337E+00    1.7979558817800012E+01   -1.2807221337160806E+01
OW    2.2020393402103597E+01   -3.6315042183992201E+00   -2.6370518961802198E+00
HW    2.2054553053916077E+01   -3.7828651840335006E+00   -3.5920426393031910E+00
HW    2.1054208264140868E+01   -3.6981116501225979E+00   -2.4374227897597813E+00
OW    2.2666254663868816E+01    5.7592498382804278E+00   -1.5197586527631490E+01
HW    2.1839590252340148E+01    6.0496773767712186E+00   -1.5691996004978906E+01
HW    2.2569066819163094E+01    6.4218271301601666E+00   -1.4432838713996134E+01
OW    9.1826656839799323E+00    1.8575012207351083E+01   -1.2103964227657071E+00
HW    8.6872324066696560E+00    1.9169831715786074E+01   -5.9583497619527503E-01
HW    9.5493717264043809E+00    1.9294722289767734E+01   -1.7439858793353069E+00
OW    2.4814204017994058E+01   -1.0020121234467112E+00   -1.0217520079551269E+01
HW    2.5636566631391574E+01   -4.8886798595472553E-01   -1.0420858542634251E+01
HW    2.5134813037752817E+01   -1.6383714453607110E+00   -9.5564632997381320E+00
OW    1.4725046384279256E+01    1.6554766164189122E+01   -8.2403943861320581E+00
HW    1.5629363176353623E+01    1.6914523202244368E+01   -8.2897390720151112E+00
HW    1.4338708161533432E+01    1.7064675827280716E+01   -7.5144980620314712E+00
OW    1.3754014402574612E+01    1.2425927156151131E+01    8.6030780964130038E+00
HW    1.4317624478957852E+01    1.2321986316233437E+01    9.4210810523967599E+00
HW    1.4135492274312705E+01    1.1738784019940462E+01    7.9376281328800751E+00
OW    1.1292846468526021E+01    1.3406425463182423E+01    5.2867832818845581E+00
HW    1.1862469759197658E+01    1.2946341677327105E+01    4.6041102215830199E+00
HW    1.1055387083046220E+01    1.2669993544092589E+01    5.9532065642474157E+00
OW    9.8814122760004626E+00    1.3440716837597748E+00    4.9910258620533900E+00
HW    9.9196953907352938E+00    1.8804642756522814E+00    4.0999884457724294E+00
HW    8.9853787773188021E+00    1.5563825576007455E+00    5.2703709562811598E+00
OW    1.9724221876388146E+01    1.2820051262073477E+01    8.5686263526761817E+00
HW    2.0701334806284692E+01    1.2572928738386803E+01    8.8572873695329477E+00
HW    1.9671272870472606E+01    1.2256038678877429E+01    7.7943882090606564E+00
OW    2.7125095999460378E+01    2.2521939868964218E+01    9.1668059622173654E+00
HW    2.7881831729124297E+01    2.1968663029409655E+01    9.5114403615501182E+00
HW    2.7109661956453916E+01    2.3165246446917148E+01    9.8656600566509773E+00
OW    6.4918969011177623E+00    5.6644442293944159E+00   -2.5008593628240776E+00
HW    5.6772699684997185E+00    6.1026797039401242E+00   -2.7773024313974339E+00
HW    7.0843958630897665E+00    5.9356499740896780E+00   -3.2888017640989808E+00