 # Version information for this restart file 
 # current date 2025-08-15 18:05:49.951
 # current working dir /fs2/home/gaoyr/bq/4-cp2k/4-CO2_NH3/3-metad/6-newpath/2/win3-2.0--1.0/win3-right
 # Program compiled at                              Thu Sep  7 10:07:06 CST 2023
 # Program compiled on                                                 th-ex-ln1
 # Program compiled for                                                    local
 # Source code revision number                                       git:e635599
 &GLOBAL
   PRINT_LEVEL  LOW
   PROJECT_NAME md
   RUN_TYPE  MD
 &END GLOBAL
 &MOTION
   &GEO_OPT
     TYPE  MINIMIZATION
     OPTIMIZER  LBFGS
     MAX_ITER  2000
     MAX_DR     1.0000000000000000E-02
     MAX_FORCE     1.0000000000000000E-02
     RMS_DR     1.0000000000000000E-03
     RMS_FORCE     1.0000000000000000E-03
     &LBFGS
     &END LBFGS
   &END GEO_OPT
   &MD
     ENSEMBLE  NVT
     STEPS  30000
     TIMESTEP     9.9999999999999989E-01
     STEP_START_VAL  6000
     TIME_START_VAL     5.9999999999994407E+03
     ECONS_START_VAL    -1.3331561644340586E+03
     TEMPERATURE     3.0000000000000000E+02
     &THERMOSTAT
       &NOSE
         LENGTH  3
         YOSHIDA  3
         TIMECON     9.9999999999999986E+01
         MTS  2
         &COORD
               6.3177620591521877E-01    2.6924149599099508E+01    1.1548868637697627E+01
         &END COORD
         &VELOCITY
               2.1389081653121302E-06    3.1000321316034614E-04   -4.5434193166700137E-05
         &END VELOCITY
         &MASS
               1.3137598809072948E+08    1.6237299232570693E+04    1.6237299232570693E+04
         &END MASS
         &FORCE
              -6.5016457594534147E-10   -2.1494270272286702E-08    3.7591978319633941E-08
         &END FORCE
       &END NOSE
     &END THERMOSTAT
     &AVERAGES  T
       &RESTART_AVERAGES
         ITIMES_START  1
         AVECPU     1.2282611030042169E+01
         AVEHUGONIOT     0.0000000000000000E+00
         AVETEMP_BARO     0.0000000000000000E+00
         AVEPOT    -1.3370225684219827E+03
         AVEKIN     3.8629473599977597E+00
         AVETEMP     3.0152535965168494E+02
         AVEKIN_QM     6.4460957536674190E-01
         AVETEMP_QM     5.9258038339534255E+02
         AVEVOL     5.5282356904673309E+05
         AVECELL_A     6.0471236252341441E+01
         AVECELL_B     6.0471236252341441E+01
         AVECELL_C     1.5117809063085141E+02
         AVEALPHA     9.0000000000000000E+01
         AVEBETA     9.0000000000000000E+01
         AVEGAMMA     9.0000000000000000E+01
         AVE_ECONS     2.9888354267610504E+02
         AVE_PRESS     0.0000000000000000E+00
         AVE_PXX     0.0000000000000000E+00
       &END RESTART_AVERAGES
     &END AVERAGES
   &END MD
   &FREE_ENERGY
     &METADYN
       USE_PLUMED  T
       PLUMED_INPUT_FILE ./plumed.dat
       MIN_DISP     1.6975966331180638-313
       OLD_HILL_NUMBER  14
       OLD_HILL_STEP  15
       STEP_START_VAL  0
       NHILLS_START_VAL  0
       COLVAR_AVG_TEMPERATURE_RESTART     6.0134700169990685-154
     &END METADYN
   &END FREE_ENERGY
   &PRINT
     &TRAJECTORY  SILENT
       FILENAME =traj.xyz
       &EACH
         MD  5
       &END EACH
     &END TRAJECTORY
     &VELOCITIES  OFF
     &END VELOCITIES
     &FORCES  OFF
     &END FORCES
     &RESTART  ON
       &EACH
         MD  200
       &END EACH
     &END RESTART
     &RESTART_HISTORY  SILENT
       &EACH
         MD  500
       &END EACH
     &END RESTART_HISTORY
   &END PRINT
 &END MOTION
 &FORCE_EVAL
   METHOD  QMMM
   &DFT
     BASIS_SET_FILE_NAME BASIS_MOLOPT
     POTENTIAL_FILE_NAME POTENTIAL
     MULTIPLICITY  1
     CHARGE  0
     &SCF
       MAX_SCF  100
       EPS_SCF     1.0000000000000001E-05
       SCF_GUESS  RESTART
       &OT  T
         MINIMIZER  DIIS
         PRECONDITIONER  FULL_SINGLE_INVERSE
       &END OT
       &OUTER_SCF  T
         EPS_SCF     1.0000000000000001E-05
         MAX_SCF  10
       &END OUTER_SCF
       &PRINT
         &RESTART  OFF
         &END RESTART
       &END PRINT
     &END SCF
     &QS
       EPS_DEFAULT     1.0000000000000000E-10
       EXTRAPOLATION  ASPC
       METHOD  GPW
     &END QS
     &MGRID
       CUTOFF     3.0000000000000000E+02
       COMMENSURATE  T
       REL_CUTOFF     4.0000000000000000E+01
     &END MGRID
     &XC
       DENSITY_CUTOFF     1.0000000000000000E-10
       GRADIENT_CUTOFF     1.0000000000000000E-10
       TAU_CUTOFF     1.0000000000000000E-10
       &XC_GRID
         XC_SMOOTH_RHO  NN10
         XC_DERIV  NN10_SMOOTH
       &END XC_GRID
       &XC_FUNCTIONAL  NO_SHORTCUT
         &PBE  T
           PARAMETRIZATION  REVPBE
         &END PBE
       &END XC_FUNCTIONAL
       &VDW_POTENTIAL
         POTENTIAL_TYPE  PAIR_POTENTIAL
         &PAIR_POTENTIAL
           TYPE  DFTD3(BJ)
           PARAMETER_FILE_NAME dftd3.dat
           REFERENCE_FUNCTIONAL revPBE
         &END PAIR_POTENTIAL
       &END VDW_POTENTIAL
     &END XC
     &PRINT
       &E_DENSITY_CUBE  OFF
       &END E_DENSITY_CUBE
     &END PRINT
   &END DFT
   &MM
     &FORCEFIELD
       PARMTYPE  AMBER
       PARM_FILE_NAME complex_LJ_mod.prmtop
       &SPLINE
         RCUT_NB     1.0000000000000002E+01
         EMAX_SPLINE     1.0000000000000000E+08
       &END SPLINE
     &END FORCEFIELD
     &POISSON
       &EWALD
         EWALD_TYPE  SPME
         ALPHA     4.0000000000000008E-01
         GMAX  80
       &END EWALD
     &END POISSON
   &END MM
   &QMMM
     E_COUPL  GAUSS
     USE_GEEP_LIB  6
     NOCOMPATIBILITY  T
     CENTER  NEVER
     INITIAL_TRANSLATION_VECTOR     0.0000000000000000E+00    0.0000000000000000E+00    0.0000000000000000E+00
     &QM_KIND H
       MM_INDEX  5..7 162 163 165 166 174 175 216 217 \
        231 232 255 256 258 259 297 298 303 304 \
        330 331 354 355 369 370 381 382 435 436 \
        528 529 534 535 570 571 645 646 687 688 \
        699 700 792 793 834 835 843 844 849 850 \
        939 940 963 964 984 985 990 991 1005 1006 \
        1017 1018 1032 1033 1152 1153 1158 1159 1167 1168 \
        1200 1201 1209 1210 1278 1279 1362 1363 1386 1387 \
        1491 1492 1512 1513 1545 1546 1674 1675 1701 1702 \
        1734 1735 1782 1783 1824 1825 1836 1837 1860 1861 \
        1965 1966 1971 1972 2028 2029 2061 2062 2091 2092 \
        2124 2125 2127 2128 2139 2140 2217 2218 2229 2230 \
        2250 2251 2259 2260 2268 2269 2280 2281 2328 2329 \
        2355 2356 2370 2371 2391 2392 2439 2440 2559 2560 \
        2604 2605 2613 2614 2634 2635 2661 2662 2688 2689
     &END QM_KIND
     &QM_KIND O
       MM_INDEX  2 3 161 164 173 215 230 254 257 \
        296 302 329 353 368 380 434 527 533 569 \
        644 686 698 791 833 842 848 938 962 983 \
        989 1004 1016 1031 1151 1157 1166 1199 1208 1277 \
        1361 1385 1490 1511 1544 1673 1700 1733 1781 1823 \
        1835 1859 1964 1970 2027 2060 2090 2123 2126 2138 \
        2216 2228 2249 2258 2267 2279 2327 2354 2369 2390 \
        2438 2558 2603 2612 2633 2660 2687
     &END QM_KIND
     &QM_KIND C
       MM_INDEX  1
     &END QM_KIND
     &QM_KIND N
       MM_INDEX  4
     &END QM_KIND
     &CELL
       ABC     2.6000000000000000E+01    2.6000000000000000E+01    1.6000000000000000E+01
       PERIODIC  XYZ
     &END CELL
     &WALLS
       WALL_SKIN     2.0000000000000000E+00    2.0000000000000000E+00    2.0000000000000000E+00
       TYPE  REFLECTIVE
     &END WALLS
   &END QMMM
   &SUBSYS
     &CELL
       A     3.2000000000000000E+01    0.0000000000000000E+00    0.0000000000000000E+00
       B     0.0000000000000000E+00    3.2000000000000000E+01    0.0000000000000000E+00
       C     0.0000000000000000E+00    0.0000000000000000E+00    8.0000000000000014E+01
       PERIODIC  XYZ
       MULTIPLE_UNIT_CELL  1 1 1
     &END CELL
     &COORD
C1    9.6565305989252082E+00    1.1023798224668962E+01    1.1340358858428095E+01
O    9.7742242405850668E+00    1.0037042557958515E+01    1.2107229166362323E+01
O    9.8626801413518059E+00    1.1165930630387543E+01    1.0133891827286551E+01
N3    8.9927516758426425E+00    1.2172471739904381E+01    1.2019820256171117E+01
HN    9.1750705326889364E+00    1.3032541573052892E+01    1.1502202160949206E+01
HN    7.6172180499032551E+00    1.1793611766571765E+01    1.2287619064696663E+01
HN    9.1905155446503333E+00    1.2286274254688843E+01    1.3046955236066657E+01
OW    3.3711575324985048E+01    2.0431069737150189E+01    2.4848760935488662E-01
HW    3.2805629006587900E+01    2.0074673891285602E+01    1.9289077354152373E-01
HW    3.4159279253906959E+01    1.9725129400816559E+01   -3.3045399364973405E-01
OW    1.4354675311333933E+00    1.6899356572697400E+01    2.2285971231078556E+00
HW    1.2815764839627899E+00    1.5968293364170657E+01    2.3885658104107881E+00
HW    6.6801025991051100E-01    1.7148844010610073E+01    1.7245889149559788E+00
OW    1.1242031558061127E+00    8.3857504184267704E+00   -5.0720009115814175E+00
HW    1.6617638032648988E-01    8.2416028978131664E+00   -5.2626577613198586E+00
HW    1.0679620854887018E+00    8.9359538617288958E+00   -4.2650468593207069E+00
OW    2.8552141050193612E+01    2.8555259574427907E+01   -6.5559670654704609E+00
HW    2.9274364177106492E+01    2.9222038510634370E+01   -6.6834892555727698E+00
HW    2.7888951203949727E+01    2.8917070083381198E+01   -7.1694759841747837E+00
OW    2.7089863836686771E+01    1.4328565602186783E+01    1.5161285409578616E+01
HW    2.6150963958516861E+01    1.4017394342837452E+01    1.4967462512246652E+01
HW    2.6774992003109219E+01    1.5145883059996240E+01    1.5655313509526543E+01
OW    1.3389875093606728E+01   -7.6660523618643572E-01    7.3890907273853159E+00
HW    1.3543677863406844E+01    1.9006982775560999E-01    7.1461433982876734E+00
HW    1.2514463314948275E+01   -6.8414992590651125E-01    7.7871287272565874E+00
OW   -3.3521363481343358E+00    2.7136570269660165E+01   -4.4593679979295890E+00
HW   -4.0069329343274962E+00    2.7589034962544680E+01   -3.8968697758514188E+00
HW   -3.5261566610220805E+00    2.7681560357804468E+01   -5.3086116745819405E+00
OW   -7.0475520422454130E+00    1.2112397444433276E+01   -1.0269724777114908E+00
HW   -7.1470018922807528E+00    1.1141967122769769E+01   -9.4426144348339758E-01
HW   -6.0979117132314924E+00    1.2204958156879602E+01   -1.1871379417259393E+00
OW    2.8561284941319364E+01   -1.2102532369023837E+00    2.6298945173862101E+00
HW    2.9482474931928255E+01   -1.2126799432310873E+00    2.8689643198736787E+00
HW    2.8127451905450744E+01   -1.7091149879705818E+00    3.3337517733608264E+00
OW    2.0243159403100268E+01    2.5117466052179967E+01   -8.0486049262423389E+00
HW    1.9887471959945085E+01    2.5787533818445461E+01   -8.6248101661977028E+00
HW    2.0901818589220891E+01    2.5635466759603798E+01   -7.5111379494456427E+00
OW    7.2928029300990538E-01    1.0767429633097297E+01    5.7070063156589770E+00
HW    8.1328931283315431E-01    1.0741996788244153E+01    6.6888700259031992E+00
HW    1.2330200264257387E+00    1.1559977908476549E+01    5.5220400653999420E+00
OW    4.1075978467682521E+00    2.1585464182243197E+01   -1.2205521857096846E+01
HW    3.8407607869959817E+00    2.2244208611737776E+01   -1.2891824504158496E+01
HW    3.3776967672649798E+00    2.1627491410925629E+01   -1.1581181299482036E+01
OW    2.2746530157947166E+01    1.3075752600303533E+01   -1.8891204853219130E+00
HW    2.2170182092485884E+01    1.2430870869167380E+01   -1.3681498739370492E+00
HW    2.3623583854312642E+01    1.2682501117601927E+01   -1.6876277205999970E+00
OW   -1.8201101025619850E+00    3.5223666323183371E+00   -9.5532156165620457E+00
HW   -2.5902659482640504E+00    2.8890314748259498E+00   -9.4951142086395439E+00
HW   -1.2040857799844471E+00    2.9521040473533553E+00   -1.0054574426494828E+01
OW    2.0282060057019539E+01    1.8170836465352076E+00   -5.5405538762412103E+00
HW    1.9376388854959945E+01    1.4827819839090144E+00   -5.7628343420494819E+00
HW    2.0188752463460386E+01    2.7293158609473167E+00   -5.9212053892901091E+00
OW    1.1595968793000571E+01    2.9989118598121745E+00   -9.2829709566435969E+00
HW    1.2038873218049156E+01    2.2922720209634382E+00   -8.8036593737588795E+00
HW    1.1678657764400489E+01    2.7168605074575192E+00   -1.0206193383269961E+01
OW    2.7489594387762561E-02    1.9103196791287132E+01   -1.2805075386585929E+00
HW    3.5263633974501074E-01    1.8831789611873923E+01   -2.1688219942770757E+00
HW   -2.5716532642098672E-01    1.8226998141763165E+01   -9.2370981659676421E-01
OW    2.2278179501472948E+01    5.8804299212413662E+00   -4.0658649719189848E+00
HW    2.2189582079063438E+01    4.8984509875194995E+00   -3.9148590436636943E+00
HW    2.1375010376677000E+01    6.1269511515090453E+00   -3.7520850507323842E+00
OW    2.0188258952813744E+01    2.1329883434809492E+01   -9.2398781162936476E+00
HW    1.9694516896973237E+01    2.1985057100432641E+01   -9.7433540945854329E+00
HW    2.0784777040659129E+01    2.1949784939193119E+01   -8.7165386832484444E+00
OW    1.9918699808032144E+01    1.3861239489272052E+01   -1.1812364445183329E+01
HW    2.0303714527979352E+01    1.4722345030086846E+01   -1.2152396522511927E+01
HW    2.0552694518555526E+01    1.3654662921246249E+01   -1.1097849710476712E+01
OW    1.7186711610874070E+01    1.9165992820714617E+01   -1.2674252855482010E+01
HW    1.6477804032682510E+01    1.8509031722779209E+01   -1.2844815187430889E+01
HW    1.6830321770364041E+01    1.9575428365363926E+01   -1.1868454316608469E+01
OW    1.7382141342978336E+01    2.7131923270599934E+01   -1.2626523496477349E+01
HW    1.7152552965647754E+01    2.7852862561050753E+01   -1.2006420629038058E+01
HW    1.7454156451990819E+01    2.7657778160767183E+01   -1.3446250292340459E+01
OW    1.9864126836496265E+01    4.2635906915056196E+00   -6.5107313102818729E+00
HW    2.0575997781271880E+01    4.1159130337038290E+00   -7.1607917886702719E+00
HW    1.9930568778882460E+01    5.2553392885460486E+00   -6.4509612925997182E+00
OW    2.6509623017901600E+01    7.9001992352953723E+00   -4.7699431367958569E+00
HW    2.6043858011889014E+01    7.0246597964335011E+00   -4.6026376107012181E+00
HW    2.7161738958374194E+01    7.8953672098236627E+00   -4.0744830877537925E+00
OW   -3.4001577389486930E+00    8.2841801145405132E+00   -8.9792220064323445E+00
HW   -4.1262956180323096E+00    7.6011172882706450E+00   -9.1548622996194826E+00
HW   -2.6468056265013589E+00    7.6904363368801674E+00   -9.1444435595158691E+00
OW    2.6926121893625204E+01    6.1113985939574293E+00   -9.7941767543031533E-01
HW    2.7588277998124031E+01    5.6801498560934069E+00   -3.8676952431407674E-01
HW    2.6175739640043844E+01    5.4583913656185805E+00   -9.2276134127034637E-01
OW    1.7449384840420823E+01    8.8737874192814878E+00    2.4851402595131864E+00
HW    1.6499051492546560E+01    8.7307299732218997E+00    2.1668469567739237E+00
HW    1.7464878071024202E+01    8.0106390667293201E+00    3.0600159219402121E+00
OW   -8.5055117004628418E+00    1.9326546172481819E+01    6.4791667074861605E+00
HW   -8.0531907346628184E+00    1.8717494166771989E+01    5.7970230018203486E+00
HW   -9.2588043719274822E+00    1.8676578234591428E+01    6.6468001160476291E+00
OW    2.3667715695406770E+01    3.1563030631013249E+00   -1.3483231858603837E+01
HW    2.4422177938827538E+01    2.5513738400644574E+00   -1.3413601453145032E+01
HW    2.3269301582884840E+01    2.8007033540861026E+00   -1.4342286632679521E+01
OW    1.1973042400935853E+01    1.6566827482681696E+00    3.0656415595470636E+00
HW    1.1534782818950726E+01    9.9008614176306231E-01    2.5122358441603869E+00
HW    1.1212261571338113E+01    2.2352842417554530E+00    3.3129801326499462E+00
OW    2.4463150549294031E+01    1.1184931187272427E+00    9.1936791271469769E+00
HW    2.3808209516863727E+01    1.2665756330917506E+00    9.8571354910856268E+00
HW    2.4428233663041368E+01    2.0005347960782647E+00    8.6975469277951447E+00
OW    3.2975457825375343E+00    1.1052857575332887E+01   -9.2384430372900574E+00
HW    2.6548125227793800E+00    1.0956712281233512E+01   -9.9924922805188743E+00
HW    2.6693610924193680E+00    1.1349712444060023E+01   -8.5317605847898470E+00
OW    2.6266997487636981E+01   -1.1606348632386787E+01    1.7327672777806217E+01
HW    2.5697339819504066E+01   -1.0974298425861367E+01    1.7747786254940369E+01
HW    2.6108396853526770E+01    1.9578161573920521E+01    1.7780117808505981E+01
OW    8.2726482402749504E+00    8.6831657689183617E-01    3.8796270389022065E+00
HW    9.1453758475840381E+00    4.6641963076273407E-01    3.7880165281138596E+00
HW    8.0736039188795985E+00    6.9282068552522103E-01    4.8437489898502744E+00
OW    1.1719378872334703E+01    1.6509425779205411E+00   -3.4623734197816138E+00
HW    1.2645783483680008E+01    1.7477185166831646E+00   -3.7899930393080363E+00
HW    1.1842352213208056E+01    9.2594077838626798E-01   -2.8268773054006728E+00
OW    1.1302821602424649E+01   -1.8974548206338462E+00   -5.6117903912471050E+00
HW    1.0427247653417925E+01   -2.2612355580024253E+00   -5.8987080069104874E+00
HW    1.1128175533256897E+01   -9.3888398543136398E-01   -5.6283985389854099E+00
OW    2.9653391098128161E+01    2.0872033673374244E+01    8.1214247750801629E+00
HW    2.9580486274649591E+01    2.0111223204013058E+01    8.7301246233039311E+00
HW    2.9071279990345211E+01    2.1529233735381688E+01    8.5370897048261636E+00
OW    2.4340421740690115E+01    1.9986445078747391E+01   -2.7856229281148517E+00
HW    2.4056450059060751E+01    1.9084731758209067E+01   -2.5611079154270202E+00
HW    2.3480464096175233E+01    2.0399221487282507E+01   -2.9782727716849706E+00
OW    1.8306929034182140E+01   -6.6725692011854595E-03   -2.0696616079907080E+00
HW    1.8924547419329638E+01    7.3019581366415254E-01   -2.3155245345749447E+00
HW    1.8427892046216819E+01   -6.5086507655311307E-02   -1.1094884966620693E+00
OW   -4.6634712106071313E-02    6.0331234788565640E+00   -1.1570134598713150E+01
HW    8.8556548668849755E-01    5.9377688965829387E+00   -1.1863992939064309E+01
HW    1.3307216547707118E-01    5.8318801016299888E+00   -1.0597404033314866E+01
OW    1.1681387443217327E+01    5.0884611270625237E+00    2.7514031750890076E+00
HW    1.0831731136645526E+01    4.5980795407602937E+00    2.8443948580448595E+00
HW    1.1934149408223851E+01    4.9969800657100842E+00    3.7156846614563133E+00
OW    1.4982762233766969E+01    3.7026137765104035E+00    6.7058686096397799E-02
HW    1.5886693759951989E+01    3.8101502832621783E+00    4.6036938980745196E-01
HW    1.4818869932555007E+01    4.6983026343677619E+00   -1.5244507667500099E-02
OW    3.4768180145144738E+00    5.9949829701674204E+00   -8.5400912202298382E+00
HW    4.0195119638059689E+00    5.9648312673601414E+00   -9.3855707719453338E+00
HW    4.1699201065379974E+00    6.4346538028414306E+00   -7.9603673682265930E+00
OW    2.6265184908707525E+01    9.8765724340213747E+00    4.3217666634326770E+00
HW    2.6776245240043394E+01    9.1793515756110171E+00    4.8036754786062046E+00
HW    2.5706129243814026E+01    9.2338412250992796E+00    3.8160132077683504E+00
OW    1.6130324327804761E+01    1.4794387317424645E+01    1.8100683726423530E+00
HW    1.5238203966876302E+01    1.5058387371688704E+01    1.4965824691864811E+00
HW    1.6107957266998170E+01    1.3858480485434297E+01    1.5117183437840047E+00
OW    8.3178738492575610E-01    1.1079297357116058E+01   -7.8393963790340475E+00
HW    1.3983061689511123E+00    1.0291954642451007E+01   -7.9426020052891353E+00
HW   -5.6936870633299046E-02    1.0617415011031371E+01   -7.7628072388958778E+00
OW    7.8879506025331221E+00    1.5269331615634378E+01   -1.1609442557951796E+01
HW    7.1285543879234963E+00    1.5599317047595287E+01   -1.2135463934573904E+01
HW    8.5454349529845484E+00    1.5282709362135950E+01   -1.2359896113611011E+01
OW    3.0214037338745506E+01    2.2907856152598280E+00    4.2132239479548481E+00
HW    2.9952898129286112E+01    3.2380877832880457E+00    4.0327052652288486E+00
HW    2.9474553121981266E+01    2.1231118817983488E+00    4.9013915341396324E+00
OW    2.0507697745430356E+01    8.4382757985019676E+00    9.9433532544255456E+00
HW    1.9916623533384897E+01    9.1508400507571253E+00    1.0278531949523677E+01
HW    1.9991269212975233E+01    8.1029283437887809E+00    9.1979952879373510E+00
OW    9.7346135339135529E+00   -7.9001040064538861E+00   -1.0046756193280567E+01
HW    8.9648279126175119E+00   -7.9794498499979154E+00   -1.0659487509183064E+01
HW    9.3136877628833599E+00   -7.9434745036646506E+00   -9.1820494048128971E+00
OW    1.7165747493620913E+01    1.2040820730882860E+01   -1.6690724481871011E+00
HW    1.6746777276158404E+01    1.2751813675982893E+01   -2.2543653321853547E+00
HW    1.7640323838863640E+01    1.2581096459081271E+01   -1.0309039679033587E+00
OW    1.5503695180761769E+01    6.2976529995442254E+00    6.8736949646708192E+00
HW    1.4946055402765683E+01    6.2622975472184512E+00    7.6757356227372915E+00
HW    1.5846947428519128E+01    5.4069804477796737E+00    6.9845859586456367E+00
OW    4.9190442612625160E+00    7.0676825044043090E+00    6.9696998099146983E+00
HW    4.9721221413257135E+00    7.5066356403226777E+00    7.8203674334713051E+00
HW    3.9227171222519295E+00    6.8614743837293890E+00    6.9421237182296576E+00
OW    7.2544499414292609E+00    2.9387440867920429E+01    4.2029057653047312E-02
HW    6.4657386739859000E+00    2.9110374393252343E+01   -4.7021834213348662E-01
HW    7.0740370868155136E+00    3.0336353225025849E+01    1.2655722542107409E-01
OW    7.8671673267401614E+00    6.7316165082032873E+00   -8.1890430677423378E+00
HW    7.6661999198833515E+00    6.0950028651513071E+00   -8.9212554686156658E+00
HW    8.4976522967435901E+00    6.1539433225548210E+00   -7.6875515177714213E+00
OW    1.4200724489164257E+01    1.6732193942424992E+01    6.1013709311001092E+00
HW    1.5069394066756344E+01    1.7227960300131947E+01    6.0458638713691428E+00
HW    1.3560795383291030E+01    1.7464145984548352E+01    6.0482490625315908E+00
OW    2.7060072448968593E+00    5.8429343264205758E-01    8.9377583981231297E+00
HW    2.3907484643002026E+00    6.9923019809303244E-01    8.0700270420058402E+00
HW    2.2294941073757713E+00   -1.8933183538146478E-01    9.2612559930607556E+00
OW    1.7162785480661618E+01    8.3271620287841264E-01   -1.1555535558978118E+01
HW    1.8053025696335638E+01    1.2049121718333620E+00   -1.1698628746645129E+01
HW    1.6951742744093437E+01    5.4040048610362867E-01   -1.2455024543695522E+01
OW    3.1417649759395658E+01    2.4634052465133376E+01   -1.2328777585268366E+01
HW    3.2204970635111600E+01    2.5199845001850996E+01   -1.2115120690308839E+01
HW    3.1494126673552934E+01    2.4630188761631974E+01   -1.3278672065855442E+01
OW    1.1373408639767025E+01   -5.4369089502705199E+00    1.3157182002841505E+00
HW    1.2169286031516874E+01    2.6440606673719579E+01    7.2757388260983291E-01
HW    1.0718416787855594E+01   -5.1044414795951223E+00    6.3908750663003888E-01
OW    3.7928597917088362E+00    1.7400799701830401E+01    9.5262195491371859E-01
HW    4.2400764380192602E+00    1.8066501165785269E+01    1.5145168282758925E+00
HW    3.0245092175175738E+00    1.7125477586839626E+01    1.4783571348430231E+00
OW    2.8544699619869192E+01    2.1016963162388112E+01    2.2491070615284068E+00
HW    2.7949967738927924E+01    2.1594313637339681E+01    2.7964258797940853E+00
HW    2.9378922260347082E+01    2.1479362245660955E+01    2.3058137297845969E+00
OW    1.2010756171634336E+01    1.0746306321129342E+01   -7.2738193798881512E-01
HW    1.2061067217576023E+01    1.0079538216202170E+01    1.8700197908092201E-03
HW    1.2307027072759899E+01    1.1542619143656957E+01   -2.4400282157603634E-01
OW    3.0068792698982463E+01    2.7730490507363634E+00    6.9728851835914192E+00
HW    3.0503569997578222E+01    2.0444527313229583E+00    7.4770708582153178E+00
HW    3.0768530490184684E+01    3.4659983598832902E+00    7.1228698549233815E+00
OW    9.4186860252759974E-01   -3.3586140304271788E+00    3.7697208891131306E+00
HW    1.5334938578516597E+00   -2.5779416243980218E+00    3.6287682953932068E+00
HW    1.1966313314051940E+00   -3.9410938620846330E+00    3.0469080692935133E+00
OW    2.3747708578174763E+01    2.4129913008865728E+01    3.1599899171968686E+00
HW    2.3761538336365184E+01    2.3332247882399813E+01    3.7399905491174112E+00
HW    2.3888535029599456E+01    2.3655251964427983E+01    2.3192957052847372E+00
OW    3.0958185259635613E+01    2.9654012404623327E+01    5.0990775419562295E+00
HW    3.0269307558004336E+01    2.8941018636902864E+01    5.0355446812267690E+00
HW    3.1710622281268929E+01    2.9176356178059098E+01    4.6554332105710854E+00
OW    2.1357063055669400E+01    1.4249674820019900E+01   -3.7564444261400300E+00
HW    2.2090412734635464E+01    1.4843550640028550E+01   -4.0955696753786057E+00
HW    2.1918095019386200E+01    1.3891383586373516E+01   -2.9542794984358229E+00
OW    1.2391810241436323E+01    3.7024734470876719E-01    1.0663743054865311E+01
HW    1.2067414166875388E+01   -4.7829886139581629E-01    1.0215555215392154E+01
HW    1.2117935583558440E+01    9.3779180912912086E-01    9.8730550865576738E+00
OW    7.4595908104904280E+00    1.8540735356045225E+01    1.0430662564471605E+01
HW    8.0902009202401644E+00    1.8160155465404074E+01    9.7087272373035862E+00
HW    7.5633020354605600E+00    1.9573548160962787E+01    1.0293865263898082E+01
OW    8.4814917613427205E+00   -5.5184858779567292E-01   -2.7097046585729836E+00
HW    7.7713630407282732E+00   -9.2584656203751947E-01   -3.3001832481412294E+00
HW    9.0210807782750422E+00   -1.3550664398489747E+00   -2.5311257899532245E+00
OW    1.1269434847649961E+01    1.2161756676386775E+01   -1.2520662322612754E+01
HW    1.2211517067385683E+01    1.1982182918203028E+01   -1.2682816233136755E+01
HW    1.1135294949616940E+01    1.1588380520699809E+01   -1.1708172097623576E+01
OW    2.4232345453003257E+00    1.7200143235245222E+00   -5.8861042950514921E+00
HW    1.6513991598752042E+00    1.3570067670112025E+00   -5.3590808871180995E+00
HW    3.1138085346918531E+00    1.0362121167361960E+00   -5.6486279652110873E+00
OW    2.4558713184814504E+01    9.1785177632210537E+00   -9.2995961204761421E+00
HW    2.3559313434475118E+01    9.2041795953898298E+00   -9.3113704548156697E+00
HW    2.4684821865921457E+01    8.9094921305085855E+00   -8.3818635770156948E+00
OW    8.4874794100652302E+00    5.8361280355928962E+00    3.0729105345590781E+00
HW    8.7478032920922821E+00    6.0646856780472183E+00    2.1706949865426535E+00
HW    7.4977554129099548E+00    5.6146243196597094E+00    2.8876936516235938E+00
OW    1.1869294359534955E+01    1.4747973914434173E+01   -1.1868901411491120E+00
HW    1.1406737381221985E+01    1.5637817132696226E+01   -1.2266835182404972E+00
HW    1.1079640388407043E+01    1.4169795622460454E+01   -1.1617294508454346E+00
OW    6.1351905270798364E+00    1.7006629375528941E+01   -1.2776402736814315E+01
HW    5.1951743384767877E+00    1.6640166576520219E+01   -1.2722905545841135E+01
HW    6.1275423733786472E+00    1.7469618519256738E+01   -1.1911262107362766E+01
OW    2.1915223907532820E+01   -1.8946004344452388E-01   -6.5300121356887031E-01
HW    2.1588137911451255E+01   -9.9541849043682540E-01   -1.7287278751971741E-01
HW    2.2608820266707596E+01    1.4061027789565672E-01   -4.4347201556098101E-02
OW    1.9415006746559673E+01   -1.9054244712214080E-01   -1.4058091892076197E+01
HW    1.9627188124347075E+01    4.9067500456597007E-01   -1.3394153595798240E+01
HW    1.8514333804474234E+01    7.1610385145299466E-02   -1.4303542491539815E+01
OW    1.0114030899196155E+01    2.1006521345223973E+01   -3.0559952593405808E+00
HW    9.8790100361669619E+00    2.1907508740346778E+01   -3.2825466192084707E+00
HW    9.2505107206449857E+00    2.0680194175852321E+01   -2.7208230526456418E+00
OW    2.0390179211417170E+01    4.0385611679803786E+00   -1.1282231915433947E+01
HW    2.0926649532602511E+01    4.3944023875326748E+00   -1.2029017737135650E+01
HW    1.9879979997507192E+01    4.8249625634687963E+00   -1.1084134791514048E+01
OW    1.0785594607342633E+01    1.9003076177560278E+01   -1.0416737919268286E+01
HW    1.0199903461049933E+01    1.9767442121883331E+01   -1.0206262767710495E+01
HW    1.0204585812174070E+01    1.8254982653671235E+01   -1.0129344663162026E+01
OW    1.5661935683299335E+01    1.8961919892447245E+01    1.1367049888682677E+01
HW    1.6385743663764742E+01    1.8321031139852529E+01    1.1444568112867085E+01
HW    1.5070185336482398E+01    1.8604999635425685E+01    1.0723432739394685E+01
OW    2.1889263583697456E+01    2.1972882660655550E+01    1.2296751215275719E+01
HW    2.0902762997768583E+01    2.1795865363135352E+01    1.2287999933762334E+01
HW    2.2155191058729127E+01    2.1575845612233177E+01    1.1407801523819012E+01
OW    1.0231807807230837E+01    3.2873168348237067E+00    4.6124856974131365E+00
HW    1.0826676757407528E+01    3.2364520714601808E+00    5.3720756486295560E+00
HW    9.3681005457752082E+00    3.4227937717997912E+00    5.0285183960698010E+00
OW    2.1945166100258966E+01    1.7236057713101470E+01    6.5740530353877658E+00
HW    2.2256495433146505E+01    1.6308736646413081E+01    6.5219011206602495E+00
HW    2.1011664000874500E+01    1.7190821655852293E+01    6.5987851613956305E+00
OW    2.3504002875968578E+01    2.1490348385416109E+01    1.9807029728502414E+01
HW    2.3415130930767358E+01    2.1914479588711245E+01    1.8961339393859944E+01
HW    2.3622223215651736E+01    2.0542963185464199E+01    1.9586416956990909E+01
OW    9.0111351380780853E+00    3.1743439049780857E+00   -2.3330372314634296E-01
HW    9.9367200573642513E+00    3.0304041393213432E+00    1.5533080703143759E-01
HW    9.1588955041495321E+00    2.7724480659145723E+00   -1.1121513078535090E+00
OW    2.0481395321237770E+00    4.6566388326062222E+00    7.7876146265541877E+00
HW    2.4460409343048908E+00    4.6963835925995934E+00    6.9272190353950824E+00
HW    2.7793408686791028E+00    4.4208979826587340E+00    8.3687879238260408E+00