 # Version information for this restart file 
 # current date 2025-08-14 20:18:30.834
 # current working dir /fs2/home/gaoyr/bq/4-cp2k/4-CO2_NH3/3-metad/6-newpath/2/win1-4.0-3.0
 # Program compiled at                              Thu Sep  7 10:07:06 CST 2023
 # Program compiled on                                                 th-ex-ln1
 # Program compiled for                                                    local
 # Source code revision number                                       git:e635599
 &GLOBAL
   PRINT_LEVEL  LOW
   PROJECT_NAME md
   RUN_TYPE  MD
 &END GLOBAL
 &MOTION
   &GEO_OPT
     TYPE  MINIMIZATION
     OPTIMIZER  LBFGS
     MAX_ITER  2000
     MAX_DR     1.0000000000000000E-02
     MAX_FORCE     1.0000000000000000E-02
     RMS_DR     1.0000000000000000E-03
     RMS_FORCE     1.0000000000000000E-03
     &LBFGS
     &END LBFGS
   &END GEO_OPT
   &MD
     ENSEMBLE  NVT
     STEPS  30000
     TIMESTEP     9.9999999999999989E-01
     STEP_START_VAL  6000
     TIME_START_VAL     5.9999999999994407E+03
     ECONS_START_VAL    -1.3332478559511235E+03
     TEMPERATURE     3.0000000000000000E+02
     &THERMOSTAT
       &NOSE
         LENGTH  3
         YOSHIDA  3
         TIMECON     9.9999999999999986E+01
         MTS  2
         &COORD
               6.3010488950045596E-01    2.8641096604453438E+01    1.0580767254794752E+01
         &END COORD
         &VELOCITY
              -1.6705255167531488E-06    9.2088970227453767E-06   -2.0659193352756653E-04
         &END VELOCITY
         &MASS
               1.3137598809072948E+08    1.6237299232570693E+04    1.6237299232570693E+04
         &END MASS
         &FORCE
               9.4094191623567260E-10   -3.5930820182424845E-08   -5.8425210065729535E-08
         &END FORCE
       &END NOSE
     &END THERMOSTAT
     &AVERAGES  T
       &RESTART_AVERAGES
         ITIMES_START  1
         AVECPU     1.2535171470917755E+01
         AVEHUGONIOT     0.0000000000000000E+00
         AVETEMP_BARO     0.0000000000000000E+00
         AVEPOT    -1.3370510317516289E+03
         AVEKIN     3.8638214983783583E+00
         AVETEMP     3.0159359120263343E+02
         AVEKIN_QM     6.4117833694797699E-01
         AVETEMP_QM     5.8942609488425683E+02
         AVEVOL     5.5282356904673309E+05
         AVECELL_A     6.0471236252341441E+01
         AVECELL_B     6.0471236252341441E+01
         AVECELL_C     1.5117809063085141E+02
         AVEALPHA     9.0000000000000000E+01
         AVEBETA     9.0000000000000000E+01
         AVEGAMMA     9.0000000000000000E+01
         AVE_ECONS     3.1352393943394145E+02
         AVE_PRESS     0.0000000000000000E+00
         AVE_PXX     0.0000000000000000E+00
       &END RESTART_AVERAGES
     &END AVERAGES
   &END MD
   &FREE_ENERGY
     &METADYN
       USE_PLUMED  T
       PLUMED_INPUT_FILE ./plumed.dat
       MIN_DISP     1.6975966331180638-313
       OLD_HILL_NUMBER  14
       OLD_HILL_STEP  15
       STEP_START_VAL  0
       NHILLS_START_VAL  0
       COLVAR_AVG_TEMPERATURE_RESTART     6.0134700169990685-154
     &END METADYN
   &END FREE_ENERGY
   &PRINT
     &TRAJECTORY  SILENT
       FILENAME =traj.xyz
       &EACH
         MD  5
       &END EACH
     &END TRAJECTORY
     &VELOCITIES  OFF
     &END VELOCITIES
     &FORCES  OFF
     &END FORCES
     &RESTART  ON
       &EACH
         MD  200
       &END EACH
     &END RESTART
     &RESTART_HISTORY  SILENT
       &EACH
         MD  500
       &END EACH
     &END RESTART_HISTORY
   &END PRINT
 &END MOTION
 &FORCE_EVAL
   METHOD  QMMM
   &DFT
     BASIS_SET_FILE_NAME BASIS_MOLOPT
     POTENTIAL_FILE_NAME POTENTIAL
     MULTIPLICITY  1
     CHARGE  0
     &SCF
       MAX_SCF  100
       EPS_SCF     1.0000000000000001E-05
       SCF_GUESS  RESTART
       &OT  T
         MINIMIZER  DIIS
         PRECONDITIONER  FULL_SINGLE_INVERSE
       &END OT
       &OUTER_SCF  T
         EPS_SCF     1.0000000000000001E-05
         MAX_SCF  10
       &END OUTER_SCF
       &PRINT
         &RESTART  OFF
         &END RESTART
       &END PRINT
     &END SCF
     &QS
       EPS_DEFAULT     1.0000000000000000E-10
       EXTRAPOLATION  ASPC
       METHOD  GPW
     &END QS
     &MGRID
       CUTOFF     3.0000000000000000E+02
       COMMENSURATE  T
       REL_CUTOFF     4.0000000000000000E+01
     &END MGRID
     &XC
       DENSITY_CUTOFF     1.0000000000000000E-10
       GRADIENT_CUTOFF     1.0000000000000000E-10
       TAU_CUTOFF     1.0000000000000000E-10
       &XC_GRID
         XC_SMOOTH_RHO  NN10
         XC_DERIV  NN10_SMOOTH
       &END XC_GRID
       &XC_FUNCTIONAL  NO_SHORTCUT
         &PBE  T
           PARAMETRIZATION  REVPBE
         &END PBE
       &END XC_FUNCTIONAL
       &VDW_POTENTIAL
         POTENTIAL_TYPE  PAIR_POTENTIAL
         &PAIR_POTENTIAL
           TYPE  DFTD3(BJ)
           PARAMETER_FILE_NAME dftd3.dat
           REFERENCE_FUNCTIONAL revPBE
         &END PAIR_POTENTIAL
       &END VDW_POTENTIAL
     &END XC
     &PRINT
       &E_DENSITY_CUBE  OFF
       &END E_DENSITY_CUBE
     &END PRINT
   &END DFT
   &MM
     &FORCEFIELD
       PARMTYPE  AMBER
       PARM_FILE_NAME complex_LJ_mod.prmtop
       &SPLINE
         RCUT_NB     1.0000000000000002E+01
         EMAX_SPLINE     1.0000000000000000E+08
       &END SPLINE
     &END FORCEFIELD
     &POISSON
       &EWALD
         EWALD_TYPE  SPME
         ALPHA     4.0000000000000008E-01
         GMAX  80
       &END EWALD
     &END POISSON
   &END MM
   &QMMM
     E_COUPL  GAUSS
     USE_GEEP_LIB  6
     NOCOMPATIBILITY  T
     CENTER  NEVER
     INITIAL_TRANSLATION_VECTOR     0.0000000000000000E+00    0.0000000000000000E+00    0.0000000000000000E+00
     &QM_KIND H
       MM_INDEX  5..7 162 163 165 166 174 175 216 217 \
        231 232 255 256 258 259 297 298 303 304 \
        330 331 354 355 369 370 381 382 435 436 \
        528 529 534 535 570 571 645 646 687 688 \
        699 700 792 793 834 835 843 844 849 850 \
        939 940 963 964 984 985 990 991 1005 1006 \
        1017 1018 1032 1033 1152 1153 1158 1159 1167 1168 \
        1200 1201 1209 1210 1278 1279 1362 1363 1386 1387 \
        1491 1492 1512 1513 1545 1546 1674 1675 1701 1702 \
        1734 1735 1782 1783 1824 1825 1836 1837 1860 1861 \
        1965 1966 1971 1972 2028 2029 2061 2062 2091 2092 \
        2124 2125 2127 2128 2139 2140 2217 2218 2229 2230 \
        2250 2251 2259 2260 2268 2269 2280 2281 2328 2329 \
        2355 2356 2370 2371 2391 2392 2439 2440 2559 2560 \
        2604 2605 2613 2614 2634 2635 2661 2662 2688 2689
     &END QM_KIND
     &QM_KIND O
       MM_INDEX  2 3 161 164 173 215 230 254 257 \
        296 302 329 353 368 380 434 527 533 569 \
        644 686 698 791 833 842 848 938 962 983 \
        989 1004 1016 1031 1151 1157 1166 1199 1208 1277 \
        1361 1385 1490 1511 1544 1673 1700 1733 1781 1823 \
        1835 1859 1964 1970 2027 2060 2090 2123 2126 2138 \
        2216 2228 2249 2258 2267 2279 2327 2354 2369 2390 \
        2438 2558 2603 2612 2633 2660 2687
     &END QM_KIND
     &QM_KIND C
       MM_INDEX  1
     &END QM_KIND
     &QM_KIND N
       MM_INDEX  4
     &END QM_KIND
     &CELL
       ABC     2.6000000000000000E+01    2.6000000000000000E+01    1.6000000000000000E+01
       PERIODIC  XYZ
     &END CELL
     &WALLS
       WALL_SKIN     2.0000000000000000E+00    2.0000000000000000E+00    2.0000000000000000E+00
       TYPE  REFLECTIVE
     &END WALLS
   &END QMMM
   &SUBSYS
     &CELL
       A     3.2000000000000000E+01    0.0000000000000000E+00    0.0000000000000000E+00
       B     0.0000000000000000E+00    3.2000000000000000E+01    0.0000000000000000E+00
       C     0.0000000000000000E+00    0.0000000000000000E+00    8.0000000000000014E+01
       PERIODIC  XYZ
       MULTIPLE_UNIT_CELL  1 1 1
     &END CELL
     &COORD
C1    1.0770520755448095E+01    9.7543299038677596E+00    1.2376180569687465E+01
O    1.1450813436536373E+01    9.3492169868429951E+00    1.1534271513451628E+01
O    1.0088476202076917E+01    1.0180722549494835E+01    1.3225539074652801E+01
N3    6.4742777490998495E+00    9.1561981226978801E+00    1.2726450996828259E+01
HN    6.0484831089059998E+00    9.6717746383272374E+00    1.3455514389616216E+01
HN    7.4637799107580962E+00    8.9290028321707346E+00    1.2446018312661417E+01
HN    5.8939724840507308E+00    8.5483194046756203E+00    1.2168589171659985E+01
OW    3.0064395100412735E+01    1.5959851441959257E+01   -3.3827931383308121E+00
HW    2.9499398139691156E+01    1.5555410238298792E+01   -4.1291748856438302E+00
HW    3.0921384741176471E+01    1.5857982082169363E+01   -3.8310307165843231E+00
OW    1.5644653044766368E+00    1.6872649256265362E+01    2.1959511002471888E+00
HW    1.3961320039613987E+00    1.7504208770475412E+01    2.9195036061017943E+00
HW    9.6312408115323722E-01    1.6182792374522514E+01    2.3955795482974032E+00
OW    4.0025626192939781E+00    1.0910423121601994E+01   -6.1371568808718715E+00
HW    4.4335631349738556E+00    1.1192057160606643E+01   -5.3022711914497132E+00
HW    3.4008626189636217E+00    1.0215291093314155E+01   -5.8203221708922985E+00
OW    3.0966570943501189E+01    2.6527388112799766E+01   -7.1953903207115859E+00
HW    3.0257199353365120E+01    2.6437268633424498E+01   -6.5337779719661366E+00
HW    3.1770273255246412E+01    2.6432488670244283E+01   -6.6049692524962511E+00
OW    2.9165220409221035E+01    2.3719382863767954E+01    1.1361034821194297E+01
HW    2.9169797676167718E+01    2.3799889778401631E+01    1.2317820733322163E+01
HW    2.8233578814848070E+01    2.3369975029045463E+01    1.1225481604209030E+01
OW    1.3563089429606361E+01   -7.5350139733012489E-01    7.5303585524217773E+00
HW    1.4028072751007844E+01    5.1861269184008310E-02    7.8491280523657974E+00
HW    1.3750964584999986E+01   -1.3890309709295716E+00    8.2426861847420234E+00
OW   -3.9058033032637756E+00    1.9951762379416166E+01   -3.8742145254884237E+00
HW   -3.0864037779137736E+00    1.9393035640625772E+01   -4.0137721661241192E+00
HW   -3.7402678310177921E+00    2.0652525062034840E+01   -4.5257379464566050E+00
OW   -7.4015166572650850E+00    1.0060117418561184E+01    2.8251036621959047E-01
HW   -8.1147661362915731E+00    1.0723522222981069E+01    5.0181677066584995E-01
HW   -6.6458489823875180E+00    1.0497314212982383E+01    7.4801952884759160E-01
OW    2.7781002383282289E+01   -2.2463010100529657E-01    4.9916103905685265E+00
HW    2.8099480531423985E+01   -1.0876771406144308E+00    5.3274820854664027E+00
HW    2.7707732594789061E+01   -3.6313993116239851E-01    4.0642261834688522E+00
OW    1.9000568251090566E+01    2.2896707106676637E+01   -6.5077469294490573E+00
HW    1.9461268774595304E+01    2.2848372618404241E+01   -5.6450589502879653E+00
HW    1.9692135844997381E+01    2.2462428195861889E+01   -7.0771711977758667E+00
OW    7.2816681445503129E-01    1.0685703543003985E+01    5.6965598915401250E+00
HW    1.1290040473376843E+00    1.0900620752558872E+01    4.7908557788978694E+00
HW    1.4935703468958335E+00    1.0334990296417688E+01    6.1251170078384582E+00
OW    1.6362591183057004E-01    1.9892212498702708E+01   -1.2677482537386119E+01
HW    3.6723452775874227E-01    2.0825107779735333E+01   -1.2689773454189604E+01
HW   -8.2152301705295183E-01    1.9944856153308699E+01   -1.2771401461054602E+01
OW    2.8409416764504854E+01    1.0449844111428195E+01   -2.2484779903903416E+00
HW    2.8354639015445009E+01    1.0852216185060126E+01   -3.1630712270696315E+00
HW    2.7802039640749893E+01    1.0988751642163004E+01   -1.7454012338907139E+00
OW    4.8367039630729430E-01    1.0603139126629171E+00   -6.5862126604112285E+00
HW   -4.7805055135902380E-01    8.2347788035545377E-01   -6.5487880490008283E+00
HW    6.8204092347773726E-01    7.4107418791681756E-01   -7.4980100383355213E+00
OW    2.2081076459348505E+01    1.7474770387755270E+00   -5.3751699066737411E+00
HW    2.3035044337116862E+01    2.0135291127079871E+00   -5.3343313299908797E+00
HW    2.1756333054676748E+01    2.3222182480762807E+00   -4.6090392599580294E+00
OW    1.1537951924838056E+01   -3.7452621958746607E-01   -1.0994166565526676E+01
HW    1.1843392572908549E+01    5.6516791589830029E-01   -1.0926727038946975E+01
HW    1.2456706385053609E+01   -8.1061870281103943E-01   -1.1127058408773649E+01
OW    7.6996959073959992E-01    2.0854613896226709E+01    6.9937692130272977E-01
HW    1.1728961725150668E+00    2.1647824623308729E+01    1.1277342502252670E+00
HW    4.7588305018621699E-02    2.1287691420406322E+01    1.9356653998555576E-01
OW    2.4472686942480259E+01    3.5915789472326396E+00   -5.8797909896778320E+00
HW    2.3934117485673724E+01    4.2611612195160662E+00   -6.3523284756264529E+00
HW    2.5361221314305286E+01    3.8600920250109874E+00   -6.2360680951035610E+00
OW    2.0579041072089964E+01    2.1301117478895062E+01   -7.6924617618361300E+00
HW    2.0535824481101113E+01    2.1081568218440982E+01   -8.6815979987147340E+00
HW    2.1548283521494437E+01    2.1349097510699270E+01   -7.6446280994508919E+00
OW    2.0838970180740290E+01    1.0192829721855372E+01   -1.2185552372812504E+01
HW    2.0410212841774158E+01    1.0984344810277394E+01   -1.2617966697455078E+01
HW    2.0141175323527406E+01    9.9404015078512966E+00   -1.1560057273032280E+01
OW    1.8193585227177962E+01    1.7942682423016716E+01   -9.2905644624134869E+00
HW    1.7423996086930458E+01    1.8573139050657087E+01   -9.3295029587993952E+00
HW    1.8044758335716612E+01    1.7439522268285838E+01   -1.0122783406936584E+01
OW    1.6736824216160620E+01    2.7117588159183679E+01   -1.0979028731857339E+01
HW    1.7309126565664936E+01    2.7881658404427515E+01   -1.0963655446470323E+01
HW    1.6059708795056999E+01    2.7382275706973939E+01   -1.0309580282297185E+01
OW    1.8511074516213480E+01    6.1672525418963202E+00   -8.6901377117286938E+00
HW    1.9134373389698034E+01    5.4025818357165303E+00   -8.5310344933746443E+00
HW    1.9041587429212438E+01    6.9294133673113700E+00   -8.5597290731106010E+00
OW    2.5910973742970075E+01    5.2687391849424676E+00   -3.0760410975847403E+00
HW    2.6821010682064706E+01    5.3490020685567954E+00   -2.6872652940214996E+00
HW    2.5836760615181159E+01    6.1722493674670398E+00   -3.4999993045213666E+00
OW   -1.4596399222104124E+00    5.7039329098693958E+00   -8.3349435849289986E+00
HW   -2.0871444091516285E+00    4.9816476148188915E+00   -8.6039389153661201E+00
HW   -1.8484017950894343E+00    5.8834986419948931E+00   -7.4193825892698229E+00
OW    2.4386608641638976E+01    7.3065284488955387E+00    1.3914936906721660E+00
HW    2.4416664441258160E+01    7.6894996810199112E+00    2.3056412511953495E+00
HW    2.4825210456611448E+01    8.0546067356321949E+00    9.0918092069768819E-01
OW    1.7422282693606835E+01    8.9096304999535167E+00    2.5209711984644447E+00
HW    1.6640379552285705E+01    9.3237683812355279E+00    2.0719033497326178E+00
HW    1.7941885612643635E+01    9.7320883306970902E+00    2.6916099221342202E+00
OW   -2.1516331548487875E+00    2.1829884793948480E+01    4.1697378735455555E+00
HW   -1.2337900139054294E+00    2.2004780227834711E+01    4.5313122699324717E+00
HW   -2.0173246714079234E+00    2.0893963689858964E+01    3.9395436107443338E+00
OW    2.5696126025710086E+01    2.6843197324584951E+00   -1.2979869254029943E+01
HW    2.5957881757703824E+01    1.8324286368696006E+00   -1.3405835083579500E+01
HW    2.4978167059923333E+01    2.9720508616187744E+00   -1.3529512570751672E+01
OW    1.1948596314566149E+01    1.6532177158082453E+00    3.1069284027129016E+00
HW    1.1409978840248229E+01    2.1554426286992419E+00    3.7401696947446235E+00
HW    1.1501577097413749E+01    7.7651647498208098E-01    3.1222997616963095E+00
OW    2.5041395863945681E+01    1.9501927604636342E+00    4.6948052424314026E+00
HW    2.4291707066216453E+01    1.5916681863180864E+00    4.1713355418888973E+00
HW    2.5784084983319048E+01    1.7963289065867389E+00    4.0375390214496241E+00
OW    7.5238477961284946E+00    1.0255672656929125E+01   -1.0046087871312857E+01
HW    7.8986398089205236E+00    9.8626572659975249E+00   -1.0858512106893299E+01
HW    6.8510068336467755E+00    9.6149916791031078E+00   -9.8038612505393363E+00
OW    3.1627990574585830E+01   -1.2016649161592822E+01    1.3123116320538395E+01
HW    3.1421712545187845E+01   -1.2415672018105388E+01    1.3994302291742342E+01
HW    3.2118317496526025E+01    1.9177913365737396E+01    1.2756923738576059E+01
OW    8.2371903319607203E+00    7.9617027129159401E-01    3.9691715150173201E+00
HW    7.7929373797180510E+00    1.4414770959061753E+00    4.6179409493471271E+00
HW    8.1796750094436064E+00   -6.8404266051151838E-03    4.5295211983026853E+00
OW    1.4223809454281463E+01    4.1933130678469404E+00   -3.3166688272110671E+00
HW    1.4877371874490501E+01    3.4800570042468690E+00   -3.1972066536857842E+00
HW    1.4204669408823218E+01    4.6062014926875889E+00   -2.4135260181748293E+00
OW    1.5855284185044702E+01    1.3364054059063386E-03   -4.5182556815824508E+00
HW    1.5699297134324956E+01    8.4608325331955425E-01   -4.0451528260627416E+00
HW    1.5486582269640174E+01    1.8835556225289793E-01   -5.3845308562234386E+00
OW    3.2468428608563208E+01    2.1981131642254287E+01    4.9741512801657306E+00
HW    3.2993674884738738E+01    2.1161342079901768E+01    4.7960966626079822E+00
HW    3.3192282841490851E+01    2.2485855232822875E+01    5.4572872349795354E+00
OW    2.4084534768307925E+01    1.3161411591998846E+01   -4.0835961254488282E+00
HW    2.3201054318428749E+01    1.3445720754715303E+01   -3.8350735871835440E+00
HW    2.4532766252209885E+01    1.3169788379810457E+01   -3.2401851791131109E+00
OW    1.9770195131109698E+01    3.3792676730006717E+00   -9.3934341112947173E-01
HW    1.9617398617833654E+01    4.2907720172407577E+00   -1.2324362049364723E+00
HW    2.0450318366766314E+01    3.5588321613511260E+00   -2.2626702078111841E-01
OW    3.1346240872039512E+00    3.5931740328259423E+00   -1.1697791906682461E+01
HW    3.3933369033321905E+00    2.8048293002411770E+00   -1.2239574795714438E+01
HW    4.0480142476051943E+00    3.8572271308907968E+00   -1.1373886103772017E+01
OW    1.1592798588984978E+01    4.9926358491532854E+00    2.7366696221003739E+00
HW    1.1218137092675143E+01    4.4531837974130593E+00    3.4668007092984894E+00
HW    1.1379727173133002E+01    4.3599014331381332E+00    1.9922014029605408E+00
OW    1.4152685233521632E+01    2.7244877150674136E+00   -1.7019581613508133E-01
HW    1.3746031773903791E+01    1.8729313820629248E+00   -3.7924789389616392E-01
HW    1.5093372794648944E+01    2.5380238386316583E+00   -3.9537080638558719E-01
OW    5.6904456285013438E+00    3.8526323584013760E+00   -1.1009802343335124E+01
HW    6.1937318869031923E+00    3.1819062918099972E+00   -1.1501108337722718E+01
HW    6.3407638150700967E+00    4.5772805434489952E+00   -1.1014212733732492E+01
OW    2.6786604989393087E+01    9.1741083927003810E+00    2.9965190937157846E+00
HW    2.7312462658178205E+01    9.2906835920629227E+00    3.8114724296439744E+00
HW    2.7462655264416238E+01    9.0740676876920805E+00    2.3011156060061908E+00
OW    1.6189555089205722E+01    1.4575130877592642E+01    1.7659254569735294E+00
HW    1.5413837490639496E+01    1.4878242946427843E+01    1.2583478330564202E+00
HW    1.5831587519332595E+01    1.3714106448964484E+01    2.1023921556059686E+00
OW    4.8758508990349565E+00    1.1203496756433722E+01   -3.3443415717008427E+00
HW    5.7116684731566467E+00    1.1541134954054465E+01   -3.0300144981021848E+00
HW    4.2367343959286758E+00    1.1747836753475026E+01   -2.8319561129752908E+00
OW    1.0028116647304003E+01    1.3451951646799046E+01   -1.0392466168395201E+01
HW    1.0685256393214111E+01    1.2849503773243660E+01   -1.0783111999183642E+01
HW    1.0005701201121145E+01    1.4139028643212871E+01   -1.1149155516552293E+01
OW    3.0302245339100441E+01    3.0246602867777198E-02    7.1571041661412975E+00
HW    2.9641083668493419E+01    6.2325041691295213E-01    6.7942319009773851E+00
HW    3.0728599542869578E+01   -4.2164022068626539E-01    6.4343062991257600E+00
OW    2.0579529666557359E+01    8.4007217359736117E+00    1.0083254828060035E+01
HW    1.9894219978249694E+01    9.1008297714312061E+00    9.8520744612662750E+00
HW    2.0492228856671712E+01    8.4419327187660862E+00    1.1066919207754575E+01
OW    8.8794212672946067E+00   -4.6500072275002209E+00   -6.4094028095786149E+00
HW    7.9393856649072561E+00   -4.9637797840154683E+00   -6.3997247485303816E+00
HW    9.0223790849103658E+00   -4.6246799426915555E+00   -5.4271360086000957E+00
OW    1.7152825774087294E+01    1.2016667602020773E+01   -1.6328513073031190E+00
HW    1.7192848743793657E+01    1.2862520683879673E+01   -2.0979111843270917E+00
HW    1.7419133931159436E+01    1.2248341910523253E+01   -7.2476762136329986E-01
OW    1.2840834560615786E+01    7.6089532167371008E+00    8.5969457553512427E+00
HW    1.2578308502615354E+01    8.5481019346758895E+00    8.6018754351535289E+00
HW    1.3821141296318757E+01    7.5508206654304351E+00    8.8580563532049990E+00
OW    5.7723484014144493E+00    1.2144191632536298E+01    3.1917620638655051E+00
HW    6.1592924683316665E+00    1.1756457396101247E+01    2.3119916388653263E+00
HW    6.2285129360846732E+00    1.1514385429946602E+01    3.8174777597611373E+00
OW    1.0946323130786581E+01    3.0480084457997396E+01    4.0066954644540309E-01
HW    1.0653561997521031E+01    3.0487741942775266E+01    1.3089530210010165E+00
HW    1.1087546335743410E+01    2.9518007796149064E+01    2.5362569206753105E-01
OW    9.1073689437814522E+00    1.7899145727686436E+00   -9.9362663742794037E+00
HW    9.1102213405848609E+00    2.7650171951726157E+00   -9.7574574590045504E+00
HW    1.0043938297586051E+01    1.6875181547753730E+00   -1.0175054199013585E+01
OW    1.2423469172438045E+01    1.4579205725908684E+01    2.8422487709592574E+00
HW    1.2460437006970906E+01    1.4036482485493696E+01    2.0529557496138828E+00
HW    1.1495217384088592E+01    1.4753052034640639E+01    2.9299740121039064E+00
OW    2.7995192119372243E+00    6.0635799870766516E-01    8.8813171503750610E+00
HW    2.8131498912920021E+00    5.3839016659981676E-01    9.8881121146935325E+00
HW    3.4002460862155939E+00   -1.7638109558282311E-01    8.6923573509767795E+00
OW    1.7267588309967152E+01    7.7666207749020322E-01   -9.4127608947390016E+00
HW    1.8196055736936682E+01    7.6390212542471325E-01   -9.7960124736672185E+00
HW    1.6776964072014763E+01    4.9818351859813970E-01   -1.0227476791276144E+01
OW    2.9927702158210362E+01    2.2737481511931399E+01   -1.2417087525175440E+01
HW    3.0738317634283636E+01    2.3175991320798150E+01   -1.2723570045615947E+01
HW    2.9424378893844178E+01    2.3497051736102492E+01   -1.2090709466530228E+01
OW    1.2142477598874819E+01   -4.7586785816127275E+00    6.7369207052101405E+00
HW    1.2703338889325957E+01    2.6528937579472469E+01    6.3621438998755560E+00
HW    1.2769251447188440E+01   -4.3172112098020676E+00    7.3235585167089194E+00
OW    3.8087640741748428E+00    1.7475159029518011E+01    9.5063310716980354E-01
HW    3.8497168824145480E+00    1.6679124738636130E+01    3.4667302724985083E-01
HW    2.9604294054854603E+00    1.7243988547249455E+01    1.3967536788504991E+00
OW    2.8271778913629273E+01    1.5477501972838093E+01    1.0355901805111849E+01
HW    2.8993487302338671E+01    1.5302749295644261E+01    9.7372966365213482E+00
HW    2.8545875060962533E+01    1.6290240435341914E+01    1.0798800786304055E+01
OW    1.1978563694589146E+01    1.0746508060533694E+01   -7.3779284219459573E-01
HW    1.2220933855106553E+01    1.0100568390617466E+01   -3.6379644111892075E-02
HW    1.2073320944762081E+01    1.1619879123635474E+01   -2.6907598988177317E-01
OW    3.0859148532076819E+01    1.6439204827826956E+00    1.1375867943900255E+01
HW    3.0067549456184977E+01    1.9350288500181207E+00    1.1832930722560437E+01
HW    3.0680145167315423E+01    7.7866988749529809E-01    1.1076107940031717E+01
OW    2.6510781915898183E+00   -3.6419779894348556E+00    2.5641901872492157E-01
HW    1.7240742484415268E+00   -3.3035287411512844E+00    2.1259168964545125E-01
HW    2.5817656119550763E+00   -4.4102678015211350E+00   -3.4455736775155721E-01
OW    1.4498406831955799E+01    2.7648595334505227E+01    8.9656370808832282E+00
HW    1.4333948891103816E+01    2.7952697066760884E+01    9.9177617555498934E+00
HW    1.4440335042462429E+01    2.6672503775044849E+01    9.1139509934497003E+00
OW    2.8921768809444952E+01    3.4278130158146162E+01    1.3473010232509954E+00
HW    2.9687353108048484E+01    3.4383130883109686E+01    7.2370665705770409E-01
HW    2.8545984645052716E+01    3.5185564517618182E+01    1.2876772346621947E+00
OW    2.0645497815983891E+01    1.4548119190859877E+01   -1.1030407884996587E+00
HW    2.1232588757289665E+01    1.3813521837257509E+01   -1.3739228312485103E+00
HW    2.0291556216314088E+01    1.4200564824155958E+01   -2.5383315368818160E-01
OW    1.2392004661444247E+01    4.0446801347055861E-01    1.0638266538751534E+01
HW    1.2024356547370466E+01    9.0406735236980973E-01    9.8517193479019145E+00
HW    1.3292905562591937E+01    6.8534212018736440E-01    1.0654372126931589E+01
OW    1.2569325617894544E+01    2.1232515051706706E+01    7.9373660453476642E+00
HW    1.3380593906401467E+01    2.1395254216197827E+01    7.3881069408459563E+00
HW    1.2816275251647486E+01    2.1837950909224841E+01    8.7973050954421961E+00
OW    5.7789981336484741E+00    1.0986590748188747E+00   -1.2035805439915816E-01
HW    6.1621415954737753E+00    2.2385147945655121E-01   -2.9421677529228984E-01
HW    5.7079379573708691E+00    1.0850186646884219E+00    8.4407181973877121E-01
OW    1.4121577897891715E+01    9.6545421157612257E+00   -1.1902251234071496E+01
HW    1.4634815867819023E+01    9.4694042724916461E+00   -1.1070873733266110E+01
HW    1.3270499386664639E+01    9.9081501312455043E+00   -1.1472533189443814E+01
OW    4.0388262642028261E+00    9.9909365788679994E-01   -6.0839231708687107E+00
HW    4.3653372120139755E+00    2.5776408771158849E-01   -6.6503637393361492E+00
HW    3.9734439447103953E+00    4.9591474488226522E-01   -5.2348714788863226E+00
OW    2.6745835734051230E+01    7.3691477799695999E+00   -8.9903553995211958E+00
HW    2.6311046924859433E+01    7.1322301223782816E+00   -8.1372830144788804E+00
HW    2.6333379270534319E+01    8.2542175130136926E+00   -9.0788740226675966E+00
OW    5.7032335164686812E+00    5.5725893568561196E+00    5.7734959286668914E+00
HW    6.1353551149919898E+00    6.4075009087215529E+00    5.6132371959531309E+00
HW    5.9924286050743483E+00    4.9063020058297102E+00    5.1618412816152084E+00
OW    1.1890820182296853E+01    1.4730138059480394E+01   -1.1559840456817947E+00
HW    1.1974076719340234E+01    1.4225941299232227E+01   -3.2354428353892928E-01
HW    1.2523842235943837E+01    1.4271778019576564E+01   -1.7328167489680995E+00
OW    5.0613657058605144E+00    1.4331806950626909E+01   -1.1665058350331490E+01
HW    4.9313286890057189E+00    1.4207825192260044E+01   -1.0716740736566100E+01
HW    5.3397166475467932E+00    1.3435448904724430E+01   -1.1929907653341216E+01
OW    2.1588929529167245E+01   -8.4543853167353511E-01   -4.5991095751057385E+00
HW    2.1736536746005900E+01   -7.2799031934546132E-01   -3.5924577487318867E+00
HW    2.1668219965209644E+01    8.7915139434526376E-02   -4.8424918609905472E+00
OW    1.9278613200862114E+01   -9.1145435023441324E-01   -1.3776451785820941E+01
HW    1.8409606425198710E+01   -1.2782440261515005E+00   -1.3578154018030812E+01
HW    1.9870583411764553E+01   -1.4968621535347812E+00   -1.3274901812003929E+01
OW    1.2084427279481526E+01    2.5253898013474270E+01   -1.2955327316257541E+00
HW    1.2454291752657719E+01    2.4816612011533710E+01   -2.0938507917299063E+00
HW    1.2883912111032062E+01    2.5683030254135009E+01   -9.2373404736611897E-01
OW    2.1707570549302527E+01    9.8789432417874379E-01   -1.2030504450726070E+01
HW    2.2611511798573876E+01    6.3135522310930270E-01   -1.2218166528765506E+01
HW    2.1865669614650365E+01    1.9361063158362699E+00   -1.2024015469421622E+01
OW    1.0038436707384939E+01    1.9085889955991249E+01   -1.0365206043609835E+01
HW    1.0262459584999750E+01    2.0015056321932686E+01   -1.0555855570698313E+01
HW    9.0642790474702188E+00    1.9080752911946888E+01   -1.0551240922840751E+01
OW    1.8403287849102114E+01    1.3662871240755193E+01    1.2531293407437410E+01
HW    1.8045256364339767E+01    1.4546274776597420E+01    1.2477151182289454E+01
HW    1.9307742177061943E+01    1.3716806687317439E+01    1.2920805002719803E+01
OW    1.8820605050243707E+01    2.2068916942782799E+01    1.1260309016725399E+01
HW    1.9032037759459911E+01    2.1362962645754301E+01    1.1947331277712500E+01
HW    1.8132535660354165E+01    2.2562380247658066E+01    1.1692665486666343E+01
OW    1.0401184789712131E+01    3.2445312761392771E+00    4.6142720260701466E+00
HW    1.0090957862911109E+01    4.0323592724011421E+00    5.1058179448198535E+00
HW    9.6050978578810682E+00    3.0089438939359110E+00    4.0961160098337421E+00
OW    2.2022119363437827E+01    1.7137183870241472E+01    6.6702253129778457E+00
HW    2.1219001595170916E+01    1.7549830015604407E+01    6.9535286810564250E+00
HW    2.2509098354446749E+01    1.6999194893993209E+01    7.5226572606463025E+00
OW    3.1816076218691965E+01    2.9234926178422967E+01    9.4109678944268218E+00
HW    3.0978265907671176E+01    2.9596575520110942E+01    9.7996964259251005E+00
HW    3.1982374188451455E+01    2.9919973636687665E+01    8.7474145840294089E+00
OW    9.0281931919236378E+00    3.2234812262423920E+00   -2.0820180151212705E-01
HW    9.9791200035599275E+00    3.4710039076043211E+00    6.0898908823497105E-02
HW    8.8944860046345138E+00    3.9244121912031567E+00   -8.8298385626205456E-01
OW    2.0490055702307659E+00    4.7266228436579363E+00    7.7011734727661247E+00
HW    1.4260812330792403E+00    4.0298192313664982E+00    7.7131383601720991E+00
HW    2.4629158413032739E+00    4.5523559407624026E+00    6.8039997239982180E+00