 # Version information for this restart file 
 # current date 2025-09-18 20:22:23.327
 # current working dir /fs2/home/gaoyr/bq/4-cp2k/4-CO2_NH3/3-metad/7-newpath2/1-NH2COOH/5-2NH3-H2O-CN/3-step-2oh/1-new-water/new/1-win1
 # Program compiled at                              Thu Sep  7 10:07:06 CST 2023
 # Program compiled on                                                 th-ex-ln1
 # Program compiled for                                                    local
 # Source code revision number                                       git:e635599
 &GLOBAL
   PRINT_LEVEL  LOW
   PROJECT_NAME md
   RUN_TYPE  MD
 &END GLOBAL
 &MOTION
   &GEO_OPT
     TYPE  MINIMIZATION
     OPTIMIZER  LBFGS
     MAX_ITER  2000
     MAX_DR     1.0000000000000000E-02
     MAX_FORCE     1.0000000000000000E-02
     RMS_DR     1.0000000000000000E-03
     RMS_FORCE     1.0000000000000000E-03
     &LBFGS
     &END LBFGS
   &END GEO_OPT
   &MD
     ENSEMBLE  NVT
     STEPS  30000
     TIMESTEP     9.9999999999999989E-01
     STEP_START_VAL  500
     TIME_START_VAL     4.9999999999999591E+02
     ECONS_START_VAL    -1.2589627338197063E+03
     TEMPERATURE     3.0000000000000000E+02
     &THERMOSTAT
       &NOSE
         LENGTH  3
         YOSHIDA  3
         TIMECON     9.9999999999999986E+01
         MTS  2
         &COORD
               6.7146446675323282E-02    4.1830860290074021E+00    2.3100312938775014E+00
         &END COORD
         &VELOCITY
               2.0689138045063592E-06    2.6169536833927222E-04    1.5305229048176474E-04
         &END VELOCITY
         &MASS
               1.3142469998842719E+08    1.6237299232570693E+04    1.6237299232570693E+04
         &END MASS
         &FORCE
               1.3356686887848998E-09   -2.3864421199224415E-08    9.9744519601222983E-09
         &END FORCE
       &END NOSE
     &END THERMOSTAT
     &AVERAGES  T
       &RESTART_AVERAGES
         ITIMES_START  1
         AVECPU     1.3445798742756248E+01
         AVEHUGONIOT     0.0000000000000000E+00
         AVETEMP_BARO     0.0000000000000000E+00
         AVEPOT    -1.2629313158554503E+03
         AVEKIN     3.8883317076659214E+00
         AVETEMP     3.0339426140797087E+02
         AVEKIN_QM     4.3154689847509942E-01
         AVETEMP_QM     4.1673262972349363E+02
         AVEVOL     5.5282356904673262E+05
         AVECELL_A     6.0471236252340539E+01
         AVECELL_B     6.0471236252340539E+01
         AVECELL_C     1.5117809063085136E+02
         AVEALPHA     9.0000000000000000E+01
         AVEBETA     9.0000000000000000E+01
         AVEGAMMA     9.0000000000000000E+01
         AVE_ECONS     2.2455435219561295E+01
         AVE_PRESS     0.0000000000000000E+00
         AVE_PXX     0.0000000000000000E+00
       &END RESTART_AVERAGES
     &END AVERAGES
   &END MD
   &FREE_ENERGY
     &METADYN
       USE_PLUMED  T
       PLUMED_INPUT_FILE ./plumed.dat
       MIN_DISP     1.6975966331180638-313
       OLD_HILL_NUMBER  14
       OLD_HILL_STEP  15
       STEP_START_VAL  0
       NHILLS_START_VAL  0
       COLVAR_AVG_TEMPERATURE_RESTART     6.0134700169990685-154
     &END METADYN
   &END FREE_ENERGY
   &PRINT
     &TRAJECTORY  SILENT
       FILENAME =traj.xyz
       &EACH
         MD  10
       &END EACH
     &END TRAJECTORY
     &VELOCITIES  OFF
     &END VELOCITIES
     &FORCES  OFF
     &END FORCES
     &RESTART  ON
       &EACH
         MD  200
       &END EACH
     &END RESTART
     &RESTART_HISTORY  SILENT
       &EACH
         MD  500
       &END EACH
     &END RESTART_HISTORY
   &END PRINT
 &END MOTION
 &FORCE_EVAL
   METHOD  QMMM
   &DFT
     BASIS_SET_FILE_NAME BASIS_MOLOPT
     POTENTIAL_FILE_NAME POTENTIAL
     MULTIPLICITY  1
     CHARGE  0
     &SCF
       MAX_SCF  100
       EPS_SCF     1.0000000000000001E-05
       SCF_GUESS  RESTART
       &OT  T
         MINIMIZER  DIIS
         PRECONDITIONER  FULL_SINGLE_INVERSE
       &END OT
       &OUTER_SCF  T
         EPS_SCF     1.0000000000000001E-05
         MAX_SCF  10
       &END OUTER_SCF
       &PRINT
         &RESTART  OFF
         &END RESTART
       &END PRINT
     &END SCF
     &QS
       EPS_DEFAULT     1.0000000000000000E-10
       EXTRAPOLATION  ASPC
       METHOD  GPW
     &END QS
     &MGRID
       CUTOFF     3.0000000000000000E+02
       COMMENSURATE  T
       REL_CUTOFF     4.0000000000000000E+01
     &END MGRID
     &XC
       DENSITY_CUTOFF     1.0000000000000000E-10
       GRADIENT_CUTOFF     1.0000000000000000E-10
       TAU_CUTOFF     1.0000000000000000E-10
       &XC_GRID
         XC_SMOOTH_RHO  NN10
         XC_DERIV  NN10_SMOOTH
       &END XC_GRID
       &XC_FUNCTIONAL  NO_SHORTCUT
         &PBE  T
           PARAMETRIZATION  REVPBE
         &END PBE
       &END XC_FUNCTIONAL
       &VDW_POTENTIAL
         POTENTIAL_TYPE  PAIR_POTENTIAL
         &PAIR_POTENTIAL
           TYPE  DFTD3(BJ)
           PARAMETER_FILE_NAME dftd3.dat
           REFERENCE_FUNCTIONAL revPBE
         &END PAIR_POTENTIAL
       &END VDW_POTENTIAL
     &END XC
     &PRINT
       &E_DENSITY_CUBE  OFF
       &END E_DENSITY_CUBE
     &END PRINT
   &END DFT
   &MM
     &FORCEFIELD
       PARMTYPE  AMBER
       PARM_FILE_NAME complex_LJ_mod.prmtop
       &SPLINE
         RCUT_NB     1.0000000000000002E+01
         EMAX_SPLINE     1.0000000000000000E+08
       &END SPLINE
     &END FORCEFIELD
     &POISSON
       &EWALD
         EWALD_TYPE  SPME
         ALPHA     4.0000000000000008E-01
         GMAX  80
       &END EWALD
     &END POISSON
   &END MM
   &QMMM
     E_COUPL  GAUSS
     USE_GEEP_LIB  6
     NOCOMPATIBILITY  T
     CENTER  NEVER
     INITIAL_TRANSLATION_VECTOR     0.0000000000000000E+00    0.0000000000000000E+00    0.0000000000000000E+00
     &QM_KIND H
       MM_INDEX  5..7 9..11 157 158 166 167 178 179 235 \
        236 259 260 262 263 268 269 286 287 313 \
        314 358 359 379 380 385 386 430 431 439 \
        440 457 458 574 575 577 578 649 650 703 \
        704 838 839 847 848 853 854 994 995 1009 \
        1010 1036 1037 1156 1157 1171 1172 1183 1184 1204 \
        1205 1258 1259 1282 1283 1333 1334 1414 1415 1471 \
        1472 1525 1526 1549 1550 1627 1628 1705 1706 1738 \
        1739 1789 1790 1804 1805 1840 1841 1861 1862 1864 \
        1865 1924 1925 1951 1952 1969 1970 1975 1976 2002 \
        2003 2032 2033 2053 2054 2065 2066 2095 2096 2131 \
        2132 2182 2183 2191 2192 2221 2222 2254 2255 2263 \
        2264 2272 2273 2275 2276 2332 2333 2359 2360 2395 \
        2396 2419 2420 2443 2444 2563 2564 2608 2609 2638 \
        2639
     &END QM_KIND
     &QM_KIND O
       MM_INDEX  2 3 156 165 177 234 258 261 267 \
        285 312 357 378 384 429 438 456 573 576 \
        648 702 837 846 852 993 1008 1035 1155 1170 \
        1182 1203 1257 1281 1332 1413 1470 1524 1548 1626 \
        1704 1737 1788 1803 1839 1860 1863 1923 1950 1968 \
        1974 2001 2031 2052 2064 2094 2130 2181 2190 2220 \
        2253 2262 2271 2274 2331 2358 2394 2418 2442 2562 \
        2607 2637
     &END QM_KIND
     &QM_KIND C
       MM_INDEX  1
     &END QM_KIND
     &QM_KIND N
       MM_INDEX  4 8
     &END QM_KIND
     &CELL
       ABC     2.5000000000000004E+01    2.5000000000000004E+01    1.8000000000000000E+01
       PERIODIC  XYZ
     &END CELL
     &WALLS
       WALL_SKIN     2.0000000000000000E+00    2.0000000000000000E+00    2.0000000000000000E+00
       TYPE  REFLECTIVE
     &END WALLS
   &END QMMM
   &SUBSYS
     &CELL
       A     3.2000000000000000E+01    0.0000000000000000E+00    0.0000000000000000E+00
       B     0.0000000000000000E+00    3.2000000000000000E+01    0.0000000000000000E+00
       C     0.0000000000000000E+00    0.0000000000000000E+00    8.0000000000000014E+01
       PERIODIC  XYZ
       MULTIPLE_UNIT_CELL  1 1 1
     &END CELL
     &COORD
C1    1.1130159831319501E+01    1.1855064696289578E+01    9.1682685846119263E+00
O    1.1273958015870759E+01    1.2480036860985201E+01    1.0271910134865857E+01
O    1.1496228443258463E+01    1.2465981408369668E+01    8.0280868479955991E+00
N3    1.0833090918324469E+01    1.0512961749304084E+01    9.2169349946927088E+00
HN    1.1006311564740978E+01    1.2094264450083287E+01    7.1721933980881518E+00
HN    1.1004888911075254E+01    1.0106394341294338E+01    1.0175181862180466E+01
HN    1.0629059816405048E+01    9.9843407334715923E+00    8.3578136546300499E+00
N3    7.8036730714493139E+00    1.2403016839372771E+01    1.0150119664558739E+01
HN    7.7705841573425802E+00    1.3406699022500996E+01    9.7759438233835159E+00
HN    6.8592304695569268E+00    1.2184739049155205E+01    1.0322268127508758E+01
HN    8.2902678954877125E+00    1.2455242125850640E+01    1.1072924487570306E+01
OW    2.8286251489050525E+01    1.4535045381409077E+01    5.3829505759646057E-01
HW    2.7674704260600432E+01    1.4368992623182699E+01   -2.5855435975328306E-01
HW    2.7918347079324775E+01    1.3828143671906229E+01    1.1480227527640441E+00
OW    2.5864778285944259E+00    1.9571842886757651E+01    1.5664846401412624E+00
HW    1.8475030600547191E+00    1.8904589467311251E+01    1.7031863329786618E+00
HW    2.4924803434028266E+00    1.9715071689242588E+01    5.9000054524453716E-01
OW    1.5942852695485414E+00    1.1299629374110191E+01   -1.0513350702356162E+01
HW    7.0503020204172528E-01    1.0991273790346323E+01   -1.0634649302137431E+01
HW    1.5208898583887347E+00    1.2215962262119890E+01   -1.0974389128430316E+01
OW    2.6186623975144069E+01    2.2618733957657881E+01   -5.8959878985252097E+00
HW    2.6155485307723900E+01    2.3444183471750051E+01   -5.3920483264841810E+00
HW    2.5295124650227471E+01    2.2709556631934625E+01   -6.3042388051238500E+00
OW    2.3146886961547153E+01    7.7776748716383093E+00    9.6000662958903504E+00
HW    2.2671491185951179E+01    8.1831591218118316E+00    8.8800887490635176E+00
HW    2.3179466078766538E+01    8.3517761321301958E+00    1.0354416300022050E+01
OW    1.8379575289102888E+01   -3.2122264155818527E+00    9.8054813156646663E+00
HW    1.7990161205025007E+01   -2.3134718614053926E+00    9.6182655132008321E+00
HW    1.7603520611336563E+01   -3.7608988563962034E+00    9.6586700609713674E+00
OW   -4.9081207138075040E+00    2.0763079539636024E+01   -4.1752987225254827E+00
HW   -5.2453931908847284E+00    2.1378247076497075E+01   -4.7785192898527358E+00
HW   -4.2067828595974559E+00    2.1221781174795261E+01   -3.7499423790106534E+00
OW   -1.8368937788445758E+00    1.0406631854694528E+01   -2.5079150398162566E+00
HW   -1.1057368253826603E+00    1.0896059867708690E+01   -2.1171227887338682E+00
HW   -2.4926628394263139E+00    1.1134454277743806E+01   -2.5308200353928019E+00
OW    2.4634674404512051E+01    3.6718290992724385E+00   -4.3157284057163716E+00
HW    2.3717551590566853E+01    4.1143492835042341E+00   -4.2848404733163132E+00
HW    2.4368417258786245E+01    2.7297704544703505E+00   -4.1066326416669350E+00
OW    1.6647245893109019E+01    2.4761576210658301E+01   -3.2710463990292666E+00
HW    1.7113548276160635E+01    2.5255304032574895E+01   -2.5481304697820866E+00
HW    1.7462844616722794E+01    2.4387618892689595E+01   -3.6686530696014610E+00
OW    4.0225219021052472E-01    1.0203723580016643E+01    3.0941371388388790E+00
HW   -5.1359830665153605E-01    1.0208640501717841E+01    2.7242145339457555E+00
HW    8.2457827378056092E-01    9.6256270159086199E+00    2.4481538799936127E+00
OW    4.7530201309961315E+00    1.7203886525381606E+01   -1.3681806724323161E+01
HW    5.3522886103159939E+00    1.7291652054900478E+01   -1.2879469856416071E+01
HW    4.5898922714568684E+00    1.8145083440972858E+01   -1.3893580737774759E+01
OW    2.0080267928222657E+01    2.4711077518642552E+00   -4.3453204248649167E+00
HW    1.9696561178832340E+01    1.6298675657270099E+00   -4.6073010341656531E+00
HW    1.9286920916409724E+01    3.0202325622531956E+00   -4.3832421309315643E+00
OW    5.1437542063536856E+00    2.0397917089491400E+00   -1.0906387835230030E+01
HW    4.3389687109753927E+00    2.1838639428781415E+00   -1.1475019665851804E+01
HW    5.0664987101168188E+00    2.8770690744135772E+00   -1.0378022964145346E+01
OW    2.1941881838972481E+01    3.3441520737987945E-01   -3.7520832175336198E+00
HW    2.1949766798767563E+01    9.6605792287175274E-01   -3.0122529429500711E+00
HW    2.1129680064587845E+01    5.9535438224471082E-01   -4.2291520599539494E+00
OW    1.1672831704804723E+01    9.5543855219227883E-02   -8.4499089527847140E+00
HW    1.2059921407344891E+01    7.1253313772138294E-01   -9.0832112015097106E+00
HW    1.0754622361712189E+01    1.7346342314728119E-01   -8.7935575725006281E+00
OW   -5.6730358243148276E+00    2.0144906298531886E+01    2.1375261545128138E-01
HW   -6.2345032968052339E+00    2.0964464001105906E+01    4.2120320682470136E-01
HW   -4.9856436215959627E+00    2.0215544132992161E+01    9.4513899239327004E-01
OW    2.4329265502439018E+01   -4.2819618829663195E+00   -3.5142245942421000E+00
HW    2.3451055541860885E+01   -3.9951483861535744E+00   -3.7917617172739768E+00
HW    2.4862181727299490E+01   -3.5937110154933989E+00   -4.0428130407314793E+00
OW    1.8214113083901172E+01    2.6004195596950900E+01   -6.7513970849314937E+00
HW    1.7578265286727753E+01    2.6770972890493926E+01   -6.9517089020407505E+00
HW    1.8380100048827604E+01    2.6253880764990797E+01   -5.8136070893522875E+00
OW    1.7360536101805298E+01    1.4392738777013871E+01   -1.2293505524273584E+01
HW    1.7619639328284485E+01    1.5095504256293717E+01   -1.1647145660672615E+01
HW    1.6449706093033285E+01    1.4299687932376441E+01   -1.1968878730927543E+01
OW    9.2932731053425517E+00    1.4706716304960956E+01   -1.4725039906056541E+01
HW    8.9252473456019477E+00    1.5577334960130997E+01   -1.4776718304045234E+01
HW    1.0061672389495731E+01    1.4692671813238517E+01   -1.5289488714232171E+01
OW    1.8336463500726502E+01    2.4822682921586651E+01   -1.3929862140962197E+01
HW    1.7389402580098412E+01    2.4540090168212792E+01   -1.4028872531398550E+01
HW    1.8745968750993882E+01    2.4251643184460676E+01   -1.4642836721475359E+01
OW    2.1078083178198465E+01    4.9748953024489788E+00   -6.7200646264192754E+00
HW    2.1771926370222364E+01    5.4668164164070365E+00   -7.1672750374538268E+00
HW    2.1509012943810568E+01    4.1612418005274296E+00   -6.3778425537402361E+00
OW    2.2094258317732034E+01   -1.7765914035833648E+00   -6.5798698196369898E+00
HW    2.2272293561155909E+01   -1.4796621775168974E+00   -7.5054945119055461E+00
HW    2.1276619403874083E+01   -2.2895300182918512E+00   -6.6503840311121900E+00
OW   -6.4335179821722682E-02    8.1735430359526493E+00   -1.0293158490405830E+01
HW   -6.9195441512608469E-01    8.8262403135067640E+00   -1.0662105744613113E+01
HW   -2.7328652548899174E-01    7.3359952990186592E+00   -1.0782164324053422E+01
OW    2.0448224680909902E+01    1.1716860629848034E+01   -6.5263095756972922E-01
HW    2.0661377430686908E+01    1.1738879819829746E+01    3.1410492777236815E-01
HW    2.0983672430535506E+01    1.2474231952850696E+01   -9.1762078995524132E-01
OW    1.5246448888065427E+01    7.2769153122678993E+00    1.9965049779161106E+00
HW    1.5728551463591549E+01    8.1089278407467429E+00    1.9177099598687428E+00
HW    1.4499633658773959E+01    7.4553003980403938E+00    1.4202977517397684E+00
OW   -2.8824400418898821E+00    2.5305173410422164E+01   -3.5414483106682013E+00
HW   -3.0082747167889288E+00    2.6039043583994129E+01   -2.9360615869769942E+00
HW   -1.9230988544111218E+00    2.5194081364085712E+01   -3.5354961734643475E+00
OW    2.5123826385904351E+01    7.7782675798927556E+00   -1.3639228060535155E+01
HW    2.4189844027047087E+01    7.8524493800219108E+00   -1.3341526770658144E+01
HW    2.5506888162455766E+01    8.5996321297610177E+00   -1.3342012090733869E+01
OW    1.0791603007516089E+01    2.7026728898115771E+00   -6.6253468559449935E+00
HW    1.0610344041511128E+01    3.6193723309576882E+00   -6.3686159437101377E+00
HW    1.1561940478826196E+01    2.8487437686475316E+00   -7.2266091667001540E+00
OW    2.0868146269555133E+01   -2.8501722744294518E+00    8.8296128615330305E-01
HW    1.9933163487957000E+01   -2.9635208732850193E+00    1.1504816639030728E+00
HW    2.0818575173170895E+01   -1.9249796554962328E+00    5.2189424706918208E-01
OW   -1.1810123992957882E+00    1.0869402768434556E+01   -1.1111373509100320E+01
HW   -1.8300415394097669E+00    1.1377911745613705E+01   -1.0513506269291131E+01
HW   -1.6802850935021327E+00    1.0972149276828372E+01   -1.1920306868673585E+01
OW    2.7249401408421853E+01   -5.9360912373961767E+00    9.8985251525710929E+00
HW    2.6932766129533970E+01   -6.4268200155481541E+00    9.0861883179866716E+00
HW    2.6880974438312833E+01    2.5382722709843755E+01    1.0523539161316243E+01
OW    5.9889887395776915E+00   -4.0772461732982332E+00    3.7894008379389348E+00
HW    5.4708381706906684E+00   -3.7387260113441858E+00    4.4604626526241802E+00
HW    5.4477715245415865E+00   -4.0318463323838829E+00    2.9588834730188340E+00
OW    5.1757276467906790E+00    3.0536040699138405E+00   -2.8898128050151533E+00
HW    5.3084098890191358E+00    2.9392129005274503E+00   -3.7962565699164350E+00
HW    4.1485257263001447E+00    3.0378671549789389E+00   -2.8901184049950954E+00
OW    1.2491964250694027E+01   -4.3616346546254006E+00   -1.0891934486361539E+01
HW    1.1737763284444753E+01   -4.5998825778483763E+00   -1.1428273252416215E+01
HW    1.2107194882810809E+01   -3.6339225499907615E+00   -1.0339325721637255E+01
OW    2.4837318682598639E+01    1.6483250437846884E+01    6.1374212324363908E+00
HW    2.5728195803178131E+01    1.6200424054155022E+01    5.9574395689487476E+00
HW    2.4925713437362713E+01    1.7253491210676529E+01    6.7277028729433814E+00
OW    2.3052718554717906E+01    6.9960464067203274E+00    5.8977523053152547E-01
HW    2.3967356247918421E+01    7.3397432549131736E+00    6.1040975798361963E-01
HW    2.3082977241676520E+01    6.3817220346094663E+00    1.3605672261823978E+00
OW    2.2064717060953772E+01    4.6078854681587771E+00   -3.9751426792285613E+00
HW    2.1478690572587208E+01    5.3133571965612862E+00   -4.3589718515687323E+00
HW    2.1392715748861882E+01    3.9004730886500423E+00   -3.9762084910074624E+00
OW    6.3610898726487735E+00    4.6293143193568778E+00   -1.2855603955056420E+01
HW    6.6565082663022661E+00    5.1401262721197920E+00   -1.3607864775122694E+01
HW    5.5565387794946846E+00    5.0705365973570489E+00   -1.2538489638856285E+01
OW    9.7510600504917893E+00    3.2214517747547484E+00    2.6602485435997356E+00
HW    1.0445859086711785E+01    3.8038642411806993E+00    3.0330810243528474E+00
HW    8.9589262627058304E+00    3.8018998564248561E+00    2.7488098150818727E+00
OW    9.3208874093559029E+00    1.3107805705098612E+00   -2.3891138216831229E+00
HW    9.6288933366039053E+00    1.9119677902357173E+00   -1.6515151185365009E+00
HW    1.0061381181404490E+01    1.2770346324313997E+00   -2.9679327420219050E+00
OW    7.1010565216287045E+00    2.0053846431877842E+00   -1.2754335390026792E+01
HW    6.4273461428662531E+00    1.8071102380735382E+00   -1.2055921285573676E+01
HW    7.0413683707698960E+00    3.0102063045577365E+00   -1.2729229898891676E+01
OW    2.6627745595382034E+01    3.1036771119489606E+00   -2.2574085232400356E+00
HW    2.7506478291673442E+01    3.3428564948075321E+00   -2.5949188070387343E+00
HW    2.6112671908496996E+01    3.0877770355440228E+00   -3.1024619998436833E+00
OW    1.3578522331391927E+01    1.1664417860489712E+01    7.0986605630329258E-01
HW    1.3241822943910975E+01    1.1926032384943824E+01    1.5504495580028748E+00
HW    1.2867343230137537E+01    1.1638241137523105E+01    1.1114234026898052E-01
OW    6.1100905750704797E+00    7.9027086345009367E+00   -1.0895695743947659E+01
HW    6.4710254748927110E+00    7.5579320517095887E+00   -1.1744705155763013E+01
HW    5.4615281387575214E+00    8.5922351791149900E+00   -1.1229327172066068E+01
OW    9.4958036005154725E+00    1.4878835006209517E+01   -1.1848834382094559E+01
HW    8.6178545653070771E+00    1.5272502721353138E+01   -1.1563204965382418E+01
HW    9.2629783016801781E+00    1.4563612057076341E+01   -1.2754479107708351E+01
OW    2.8651677627982927E+01    3.4733244362547722E+00    5.1699236346040829E+00
HW    2.8511358991048553E+01    3.3421114010812749E+00    4.1694535950433380E+00
HW    2.8870175893290831E+01    4.4722262706834917E+00    4.9946054748364848E+00
OW    1.9616234897403825E+01    1.0620080080780737E+01    8.1275041019255507E+00
HW    2.0530580600793236E+01    1.0125849962839805E+01    8.1229826326677763E+00
HW    1.8940025892393859E+01    9.9143635585033820E+00    7.9692437338546513E+00
OW    9.5261093219590816E+00   -3.6731245526126410E+00   -1.0121259905964070E+01
HW    8.6773470009162601E+00   -3.3945441501799327E+00   -9.7289418625382122E+00
HW    1.0064029300894560E+01   -3.6658297332189904E+00   -9.3136456367544191E+00
OW    1.6761733643241953E+01    1.4572956407359584E+01   -1.6372925493795882E+00
HW    1.6409322963259054E+01    1.4055685993719607E+01   -8.2565773895075112E-01
HW    1.6259433306280595E+01    1.5415703471660253E+01   -1.5382303969697553E+00
OW    2.3797155780546531E+00    1.2349249358855969E+01    8.6198855426286425E+00
HW    2.4332704856300249E+00    1.1484713612529024E+01    9.0586030330067580E+00
HW    3.2667272434304739E+00    1.2376975014377679E+01    8.2540575527758939E+00
OW    7.3947305102419945E+00    1.8434711691011103E+01    3.4746098191163877E+00
HW    6.7789238206038975E+00    1.8618550302813677E+01    2.7519475170809624E+00
HW    6.8403654709243771E+00    1.8631034479677119E+01    4.2319152608639579E+00
OW    4.5329297559012813E+00    2.6063350033317718E+01   -2.9599901161373210E+00
HW    5.3472490083827644E+00    2.6121759478445124E+01   -2.4298242602191920E+00
HW    3.9325164109917363E+00    2.6550830730029702E+01   -2.3682949081328752E+00
OW    9.4834350355156261E+00   -1.3899770797641289E+00   -1.3842160475990763E+01
HW    9.3320611553509938E+00   -1.5756154444547832E+00   -1.4815237720537802E+01
HW    1.0405583037705735E+01   -1.5671850004548111E+00   -1.3703955671294391E+01
OW    1.2504594696503103E+01    1.8123591157101814E+01    8.0296991982114090E+00
HW    1.2861226860362667E+01    1.7784406190814106E+01    8.9035131653485511E+00
HW    1.1993157785536573E+01    1.7281843766275987E+01    7.6456589064801950E+00
OW    3.1118948156114281E+00   -1.3129786225492863E+00    7.2671063040400217E+00
HW    2.7933776989021890E+00   -1.2030018963137470E+00    6.3491244319891589E+00
HW    2.7062631198906515E+00   -5.8430316466426968E-01    7.7474066626373901E+00
OW    1.7996338341038225E+01   -2.7745129322129296E+00   -1.2432488954072959E+01
HW    1.8758681965439116E+01   -2.1682024165380138E+00   -1.2495837189821142E+01
HW    1.8401555080531377E+01   -3.6001398476244666E+00   -1.2809505993706354E+01
OW    2.6470240439993372E+01    2.2225178064734944E+01   -1.2636255723661277E+01
HW    2.6908711989404825E+01    2.3098570023053220E+01   -1.2666987299362450E+01
HW    2.5537582146414302E+01    2.2436619939323478E+01   -1.2384102370633462E+01
OW    6.5453065352712230E+00   -3.0975133395883296E+00    7.7203129218814883E+00
HW    7.1820709131451048E+00    2.9317447321796848E+01    7.1456678638824807E+00
HW    6.3467552494663755E+00   -2.4756224781134546E+00    8.4386038925984277E+00
OW    3.7881807514231016E+00    1.9070700112392053E+01   -4.6147507148031375E+00
HW    4.7106356941592304E+00    1.8985087778613110E+01   -4.2960531712656644E+00
HW    3.4926974676958298E+00    1.9840676477535162E+01   -4.1196867270764006E+00
OW    2.2872589877532810E+01    1.8031685383880379E+01    4.8506308939618643E+00
HW    2.2895896516964005E+01    1.8882995403708456E+01    5.2956693942862954E+00
HW    2.3569963020348563E+01    1.7548570161380745E+01    5.3671465237989819E+00
OW    6.7527855029721389E+00    5.8585612700828094E+00    6.1172588546338957E-01
HW    5.7833181415909731E+00    6.0703948945551636E+00    7.6097701120823391E-01
HW    6.6237385978435235E+00    5.2943199839674007E+00   -1.5659398410930342E-01
OW    2.9193217697031340E+01    4.2492726029202457E+00    1.0834695485077674E+01
HW    2.9718172217093436E+01    5.0138560080763597E+00    1.1243244756916283E+01
HW    2.9275069881410190E+01    3.6419258463841429E+00    1.1530816232495248E+01
OW    5.0217236548148874E+00    7.8602878324741876E-01   -1.3292817468083529E+00
HW    5.5862377741298932E+00    1.0157775804758780E+00   -5.6804818823782066E-01
HW    5.1624755329586396E+00    1.6361931912210037E+00   -1.8373246348399834E+00
OW    1.7465381966500370E+01    2.0176477592265282E+01    2.6970617519770856E+00
HW    1.6463488172132212E+01    2.0297407766803158E+01    2.6113620452058708E+00
HW    1.7516611143660135E+01    1.9290297655950056E+01    2.1849821773623934E+00
OW    2.2052296799320992E+01    2.5313117947251786E+01    2.3809945061133136E-02
HW    2.1728860344273443E+01    2.6121978421613399E+01   -3.5516373505927784E-01
HW    2.2042689521058332E+01    2.5492524423230197E+01    9.5389366803805509E-01
OW    1.9926826270883488E+01    6.3948619459263432E+00   -2.3128967447508937E+00
HW    2.0414181788119450E+01    6.9693209661851503E+00   -2.9642735930056290E+00
HW    1.9563853306534707E+01    7.1752331479692470E+00   -1.7459135969491621E+00
OW    1.1060294596454817E+01   -1.4600792122226360E+00    1.0038393862902689E+01
HW    1.0365481945538123E+01   -2.0548774312813136E+00    9.8499310705309640E+00
HW    1.1800309268589853E+01   -2.0044520853722747E+00    1.0224386670161637E+01
OW   -2.4637057964391731E-01    2.5642966570294099E+01    1.2913630373296352E+01
HW    5.3918474846117004E-01    2.6014024893060917E+01    1.2449418459792311E+01
HW   -5.6484111204037513E-02    2.4704215646974276E+01    1.2818572826253648E+01
OW   -2.2880970168475492E+00    9.7720975171169469E-02   -6.8993249696213732E-01
HW   -3.0312738299756923E+00    2.3878769234494618E-01   -7.8937917907002275E-02
HW   -1.8481247015616000E+00    9.8294729889380894E-01   -5.9940699777577344E-01
OW    7.2712624641939945E+00    8.4037286069964292E+00   -1.3264704860240995E+01
HW    7.2378812344390964E+00    8.0869468191865916E+00   -1.4179388514937450E+01
HW    8.2114785523588694E+00    8.1876623634963419E+00   -1.3021019330923911E+01
OW    1.2958722523521091E+00   -5.4066411298153172E+00   -6.2875252012856802E+00
HW    1.8420480736679545E+00   -4.7503582156698450E+00   -5.7428602899240300E+00
HW    3.8946557794053965E-01   -5.0246884111594943E+00   -6.1707135907607720E+00
OW    2.6064574740765380E+01    1.6306183754202085E+01   -1.4724297968704526E+01
HW    2.5819538099010401E+01    1.5494280905124112E+01   -1.4237984283665808E+01
HW    2.5520984598484315E+01    1.6940557652209183E+01   -1.4202563060998893E+01
OW    1.1562395878079274E+01    1.0024274104833147E+01    4.9948769600499663E+00
HW    1.1707400900157440E+01    9.2245480877490262E+00    5.4963439240844503E+00
HW    1.1121266864801759E+01    9.6780308568110307E+00    4.2077845657606670E+00
OW    1.2151143474848569E+01    8.1956062046581781E+00   -2.0093828921577011E+00
HW    1.1968233722790641E+01    8.5887944487710026E+00   -1.1285643059873181E+00
HW    1.2382339216266173E+01    8.9631649020059161E+00   -2.5662287360504852E+00
OW    4.9592049245073726E+00    1.4773836883300563E+01   -1.5065467845846040E+01
HW    4.9029706121773904E+00    1.5680895652015893E+01   -1.4622885935950647E+01
HW    4.9393507946181190E+00    1.5122565812768540E+01   -1.6008769311645782E+01
OW    1.9047036712906728E+01   -1.3069466934586638E+00   -9.5674222467419199E+00
HW    1.8414994809816577E+01   -1.9338983272868606E+00   -1.0011154349240682E+01
HW    1.9805321593462768E+01   -1.3045200592884925E+00   -1.0194976456226195E+01
OW    2.3026741630028120E+01    4.9990982508399195E+00   -1.4376426289766981E+01
HW    2.2512032100655976E+01    4.8894720142876507E+00   -1.3532620983564081E+01
HW    2.2441812927920203E+01    5.6966713442741783E+00   -1.4793534849725022E+01
OW    9.2919036922447162E+00    1.8813958066836541E+01   -1.2571274245272288E+00
HW    9.3274448707602691E+00    1.9454908277726840E+01   -5.4998420773370249E-01
HW    9.4493705890065272E+00    1.7994934211485702E+01   -8.2098856938623443E-01
OW    2.4506312863000911E+01   -2.9394271464525183E+00   -8.5205809392285730E+00
HW    2.4796843314854502E+01   -2.3337042558528545E+00   -9.1824359512141758E+00
HW    2.4411068287417340E+01   -3.7513138352907682E+00   -9.0761838487094746E+00
OW    1.0021851588508124E+01    1.7972251520215828E+01   -7.8342495668653447E+00
HW    9.4131573869922871E+00    1.8051734344462407E+01   -8.6064856571344528E+00
HW    9.4618933916218531E+00    1.8122382192076554E+01   -7.1106999851341950E+00
OW    1.5720577431912462E+01    1.0293836285382854E+01    5.3872893055706648E+00
HW    1.5270409818390675E+01    9.3490609925567600E+00    5.4496592136344315E+00
HW    1.6716407377251269E+01    1.0146311337745271E+01    5.3715709135236791E+00
OW    6.2416506150681572E+00    1.6216100571770763E+01    6.1525002727002445E+00
HW    5.3983814745383052E+00    1.6093417308928775E+01    5.6445379702299592E+00
HW    6.4188238558424082E+00    1.5336607242967728E+01    6.5575225277916118E+00
OW    9.8737064166535831E+00    1.2793562352518895E+00    4.7002545066984966E+00
HW    9.7831865761594674E+00    1.8168740585441823E+00    3.8685384323415972E+00
HW    8.9009981347181242E+00    1.3730728059466837E+00    4.9593349815473129E+00
OW    1.9079996676550383E+01    1.2612143343032340E+01    5.5420664050781792E+00
HW    1.9010647811456089E+01    1.2104239658171105E+01    6.3650896663999443E+00
HW    1.9968864525766580E+01    1.2415618174208994E+01    5.2195014816235163E+00
OW    2.5038489019293475E+01    2.1116512457540122E+01    8.7721405496218026E+00
HW    2.5048492256346297E+01    2.1953409439344412E+01    8.2947202812788916E+00
HW    2.4191404107971508E+01    2.1115097547949834E+01    9.2088713484096694E+00
OW    7.1500104369912432E+00    3.7373452610336892E+00   -1.2140525154206521E+00
HW    7.1991281791703265E+00    2.9076438243730149E+00   -7.2111344423377899E-01